1 702
1 2549
1 3491
2 4
2 7
2 33
2 34
2 47
2 49
2 64
2 71
2 72
2 87
2 90
2 91
2 110
2 111
2 127
2 135
2 145
2 154
2 156
2 158
2 167
2 172
2 175
2 190
2 200
2 201
2 202
2 203
2 210
2 221
2 227
2 241
2 274
2 287
2 291
2 294
2 296
2 297
2 298
2 301
2 302
2 307
2 368
2 437
2 462
2 503
2 513
2 568
2 592
2 601
2 602
2 613
2 626
2 654
2 669
2 681
2 689
2 692
2 702
2 709
2 726
2 728
2 729
2 736
2 745
2 749
2 758
2 764
2 774
2 785
2 793
2 849
2 858
2 872
2 883
2 884
2 896
2 899
2 901
2 905
2 914
2 915
2 920
2 926
2 931
2 932
2 936
2 937
2 947
2 963
2 1005
2 1014
2 1029
2 1044
2 1063
2 1068
2 1074
2 1084
2 1091
2 1100
2 1102
2 1126
2 1139
2 1142
2 1148
2 1166
2 1174
2 1182
2 1186
2 1200
2 1237
2 1240
2 1245
2 1257
2 1289
2 1312
2 1347
2 1370
2 1392
2 1514
2 1531
2 1577
2 1580
2 1582
2 1618
2 1620
2 1622
2 1669
2 1670
2 1674
2 1685
2 1692
2 1719
2 1741
2 1747
2 1765
2 1787
2 1801
2 1831
2 1834
2 1871
2 1887
2 1895
2 1924
2 1948
2 1994
2 2002
2 2011
2 2014
2 2015
2 2025
2 2036
2 2042
2 2066
2 2072
2 2088
2 2094
2 2102
2 2111
2 2112
2 2113
2 2114
2 2115
2 2123
2 2142
2 2143
2 2144
2 2150
2 2153
2 2167
2 2172
2 2181
2 2196
2 2228
2 2327
2 2474
2 2498
2 2512
2 2549
2 2552
2 2598
2 2601
2 2638
2 2667
2 2668
2 2671
2 2680
2 2686
2 2700
2 2715
2 2721
2 2780
2 2818
2 2829
2 2857
2 2905
2 2915
2 2951
2 2975
2 3127
2 3135
2 3138
2 3148
2 3162
2 3179
2 3183
2 3210
2 3258
2 3293
2 3304
2 3357
2 3358
2 3361
2 3382
2 3405
2 3411
2 3419
2 3423
2 3451
2 3480
2 3482
2 3492
2 3496
2 3523
2 3528
2 3530
2 3550
2 3562
2 3579
2 3615
2 3646
2 3652
2 3704
2 3721
2 3738
2 3750
2 3776
2 3792
2 3797
2 3838
2 3848
2 3881
2 3901
2 3915
2 3933
2 3968
2 4001
2 4002
2 4007
2 4011
2 4068
2 4070
2 4080
2 4125
2 4126
2 4127
2 4128
2 4132
2 4138
2 4140
2 4157
2 4169
2 4201
2 4248
2 4258
2 4279
2 4336
2 4356
2 4408
2 4422
2 4437
2 4455
2 4498
2 4505
2 4528
2 4545
2 4551
2 4566
2 4569
2 4575
2 4584
2 4649
2 4732
2 4912
2 4958
2 4964
2 5001
2 5007
2 5092
2 5144
2 5153
2 5160
2 5191
2 5206
2 5239
2 5244
2 5250
2 5259
2 5268
2 5298
2 5331
2 5391
2 5407
2 5414
2 5453
2 5463
2 5528
2 5529
2 5586
2 5587
2 5647
2 5651
2 5660
2 5663
2 5685
2 5692
2 5694
2 5697
2 5724
2 5728
2 5737
2 5738
2 5761
2 5765
2 5767
2 5780
2 5791
2 5815
2 5820
2 5826
2 5866
2 5887
2 5893
2 5908
2 5918
2 5969
2 5989
2 6008
2 6020
2 6025
2 6042
2 6071
2 6074
2 6114
2 6133
2 6135
2 6136
2 6140
2 6142
2 6151
2 6161
2 6171
2 6173
2 6202
2 6203
2 6222
2 6228
2 6246
2 6262
2 6275
2 6301
2 6302
2 6317
2 6321
2 6339
2 6351
2 6353
2 6371
2 6380
2 6416
2 6426
2 6433
2 6434
2 6443
2 6454
2 6462
2 6468
2 6470
3 1147
3 5697
4 146
4 294
5 1053
6 702
6 3562
7 3216
8 787
9 115
9 4558
10 146
10 5051
11 726
11 2552
12 702
13 146
13 1424
13 1786
14 214
14 669
14 914
15 146
15 1424
15 1786
16 3562
16 5697
17 294
18 702
18 1424
19 146
19 602
19 3355
20 702
21 146
21 1424
22 702
22 3562
22 6083
23 914
23 5856
23 5882
24 2915
25 298
25 5933
26 294
26 1056
26 1853
27 146
27 1786
28 2549
28 6088
29 702
29 3562
30 146
31 1240
31 2915
32 227
32 294
32 1053
33 1056
33 2829
33 3197
34 702
34 2498
34 2829
34 3558
35 1424
35 3933
36 1634
36 3550
36 5950
37 702
37 1240
37 1741
38 3521
38 3740
39 294
39 1225
39 1226
39 5647
40 210
40 6403
41 1240
41 5509
42 298
43 3464
44 294
44 1786
45 3357
45 3721
46 294
47 146
47 702
48 1053
49 914
49 5059
50 702
51 294
51 3451
52 6348
53 1053
53 3562
54 210
54 5651
55 210
55 1226
56 5360
57 2915
57 4970
58 1240
58 1317
58 5983
58 6444
59 6333
60 5647
61 1240
62 702
63 702
63 3744
63 4878
63 4903
63 5609
65 1741
66 726
67 716
67 2915
68 154
68 209
68 279
68 644
68 702
68 775
68 811
68 869
68 1070
68 1194
68 1293
68 1365
68 1928
68 2000
68 2550
68 2789
68 3455
68 3485
68 3562
68 3633
68 3655
68 3896
68 4494
68 4568
68 5313
68 5330
68 6028
68 6066
68 6343
69 294
70 702
70 726
70 1240
70 3562
72 702
72 726
72 5651
73 3306
73 4638
73 5552
74 102
74 2915
75 3767
75 6454
76 137
76 786
76 1040
76 1043
76 1112
76 1170
76 1964
76 2030
76 3048
76 4001
76 5852
76 6125
77 702
77 1741
78 2549
78 5724
79 702
79 3562
80 227
80 3968
81 702
81 2915
82 210
82 702
82 1240
82 1424
82 3499
82 5415
82 5996
82 6251
83 272
83 294
83 377
83 550
83 578
83 804
83 819
83 853
83 1104
83 1995
83 2140
83 3371
83 5933
83 5957
83 6093
83 6237
83 6252
84 914
85 914
85 3740
86 211
86 5651
88 726
88 5844
89 146
89 1741
89 2915
90 722
90 914
91 702
92 4514
93 1240
93 3562
93 4040
94 146
94 1741
95 695
95 702
95 933
96 702
97 3284
97 6454
98 2915
99 3357
99 4201
100 1761
101 4514
102 146
102 702
102 1240
102 1424
102 1639
102 1741
102 2089
102 2448
102 2536
102 3066
102 5146
102 5323
103 6088
104 146
104 294
104 1071
104 1104
104 2829
104 2915
104 5100
104 5647
105 146
105 210
105 5549
105 5683
106 3550
106 6135
107 578
107 817
108 702
108 5651
109 578
109 817
110 702
110 703
110 726
110 1222
110 1240
110 2498
110 2549
112 146
112 702
113 702
113 1240
114 3357
115 279
115 294
115 303
115 1021
115 1109
115 2023
115 2283
115 2915
115 3562
115 4558
115 5708
116 279
117 702
117 2915
118 1240
119 702
119 3562
120 702
120 2915
120 3562
121 726
121 2065
122 702
123 702
124 3562
124 6019
125 702
125 3562
126 726
128 227
128 298
128 1053
129 2768
130 1240
130 6348
131 815
131 3603
132 1053
132 1853
133 914
134 2042
134 5651
135 702
136 3562
137 4231
138 3157
138 3272
138 3427
138 5442
138 5445
138 5446
138 5447
138 5458
139 702
140 722
141 702
142 702
142 2915
143 702
144 702
144 1741
145 726
146 195
146 196
146 211
146 218
146 226
146 294
146 694
146 722
146 762
146 812
146 1053
146 1104
146 1130
146 1207
146 1225
146 1250
146 1707
146 1743
146 2174
146 2553
146 2573
146 2699
146 2734
146 3129
146 3389
146 3528
146 3562
146 3677
146 3686
146 3757
146 3807
146 4000
146 4078
146 4131
146 4558
146 5051
146 5360
146 5415
146 5641
146 5658
146 5724
146 5740
146 5923
146 6088
146 6193
146 6416
147 946
147 1901
147 2554
147 4512
147 5415
147 5662
147 6357
148 1901
149 702
149 1240
150 914
151 1917
152 1222
152 2916
152 3463
152 4059
152 4629
152 4638
152 4658
152 4717
153 2549
154 633
154 702
154 1240
154 1258
154 1274
154 1741
154 1831
154 1850
154 2498
154 3216
154 3304
154 3562
154 5237
154 5379
154 6363
155 702
156 702
156 6462
157 5674
158 702
158 1240
159 605
159 702
159 774
159 2549
159 3369
160 601
160 3113
161 294
161 1424
161 5647
162 726
163 726
163 1240
163 3562
163 3915
163 5007
164 1197
164 1240
164 6009
165 817
166 2915
166 3762
166 6462
167 702
167 1240
167 2549
168 3562
169 702
169 1240
170 702
170 3448
171 3968
172 702
173 180
173 210
174 2512
174 3865
174 4695
175 278
175 287
175 294
175 306
175 312
175 625
175 702
175 722
175 726
175 775
175 825
175 858
175 962
175 1224
175 1240
175 1291
175 1295
175 1317
175 1366
175 1410
175 1674
175 1704
175 1708
175 1756
175 1804
175 1817
175 1933
175 2007
175 2054
175 2258
175 2404
175 2490
175 2494
175 2522
175 2555
175 2598
175 2605
175 2667
175 2704
175 2720
175 2732
175 2813
175 2829
175 2915
175 3088
175 3228
175 3404
175 3457
175 3523
175 3562
175 3635
175 3704
175 3870
175 3892
175 3925
175 3958
175 3977
175 4068
175 4071
175 4171
175 4298
175 4473
175 4548
175 4637
175 5141
175 5226
175 5228
175 5235
175 5320
175 5335
175 5379
175 5419
175 5443
175 5512
175 5705
175 5854
175 5890
175 5953
175 6123
175 6200
175 6232
175 6265
175 6405
175 6454
176 914
177 424
177 726
178 702
179 702
179 3562
179 4201
179 6198
180 247
180 6348
181 726
181 1240
181 2915
181 3562
182 702
182 3562
183 673
184 702
184 3562
185 3550
185 5647
185 6348
186 2915
187 2915
188 702
189 294
191 726
191 1240
191 4201
192 2178
193 702
193 953
193 3562
193 4152
193 5549
194 4007
195 210
196 294
196 1228
196 1741
196 1910
196 2642
196 6159
197 726
197 1342
197 1741
198 726
199 1240
199 6403
201 702
201 4077
201 5755
201 6019
201 6361
201 6436
202 1246
202 4737
203 2498
203 2517
204 1240
205 5051
206 3562
207 702
207 2552
208 702
210 211
210 224
210 231
210 238
210 241
210 282
210 287
210 294
210 297
210 298
210 301
210 305
210 597
210 601
210 602
210 607
210 619
210 624
210 633
210 655
210 659
210 663
210 688
210 690
210 692
210 696
210 702
210 732
210 750
210 770
210 800
210 834
210 842
210 870
210 878
210 931
210 941
210 943
210 945
210 989
210 1042
210 1106
210 1159
210 1180
210 1200
210 1208
210 1213
210 1240
210 1353
210 1369
210 1469
210 1618
210 1632
210 1643
210 1669
210 1707
210 1708
210 1710
210 1741
210 1757
210 1801
210 1814
210 1817
210 1835
210 1843
210 1846
210 2017
210 2067
210 2069
210 2076
210 2091
210 2194
210 2363
210 2439
210 2468
210 2678
210 2680
210 2686
210 2696
210 2712
210 2759
210 2829
210 2851
210 2902
210 2905
210 2915
210 2969
210 3010
210 3035
210 3055
210 3088
210 3120
210 3277
210 3322
210 3357
210 3451
210 3490
210 3508
210 3510
210 3515
210 3519
210 3562
210 3564
210 3569
210 3576
210 3591
210 3615
210 3619
210 3647
210 3683
210 3717
210 3723
210 3734
210 3787
210 3897
210 3899
210 3902
210 3952
210 3978
210 4007
210 4040
210 4123
210 4126
210 4128
210 4129
210 4132
210 4133
210 4139
210 4140
210 4153
210 4163
210 4201
210 4217
210 4259
210 4269
210 4325
210 4362
210 4446
210 4522
210 4598
210 4630
210 4814
210 4849
210 4888
210 4955
210 5015
210 5025
210 5094
210 5111
210 5113
210 5123
210 5140
210 5145
210 5154
210 5186
210 5215
210 5232
210 5259
210 5269
210 5280
210 5309
210 5329
210 5341
210 5345
210 5403
210 5474
210 5502
210 5503
210 5609
210 5615
210 5627
210 5646
210 5666
210 5697
210 5717
210 5726
210 5745
210 5769
210 5783
210 5786
210 5798
210 5804
210 5827
210 5849
210 5860
210 5889
210 5894
210 5915
210 5927
210 6026
210 6044
210 6064
210 6081
210 6094
210 6103
210 6146
210 6152
210 6177
210 6182
210 6203
210 6204
210 6248
210 6257
210 6276
210 6280
210 6289
210 6291
210 6294
210 6320
210 6341
210 6349
210 6351
210 6356
210 6376
210 6398
210 6451
210 6454
210 6467
212 1226
212 4240
213 2549
213 6136
215 702
215 1240
215 5706
216 702
216 726
216 3562
216 5651
217 703
217 1914
218 294
218 5007
219 1226
219 1240
219 3550
220 722
221 702
221 1240
221 2549
221 6208
222 2549
222 5697
222 6063
223 722
224 702
225 2417
225 2604
226 792
226 1240
227 294
227 1153
227 1741
227 2829
227 3550
227 4555
227 4556
227 5656
227 5677
227 5719
227 5727
228 725
229 3562
230 238
231 702
231 4201
232 1869
233 5697
234 817
235 2915
236 726
237 726
237 1906
238 239
238 294
238 1424
238 2164
238 2829
238 2915
238 3492
238 3562
238 5697
238 5972
239 1240
240 550
242 726
243 1240
243 2552
244 702
244 716
244 745
245 3550
246 6008
247 1187
248 702
249 406
249 1741
249 1786
249 2567
249 2736
249 2893
249 3259
249 3282
249 3283
249 3421
249 4481
249 5061
250 702
250 4201
251 3405
252 1741
252 2667
253 914
254 702
254 4176
254 5728
255 702
255 6348
256 722
257 3492
257 4566
258 6060
258 6088
259 702
259 726
259 2915
259 3952
259 6462
260 702
260 2549
261 3738
261 3968
261 6348
262 726
262 3562
263 294
263 3492
263 5647
264 6333
265 702
266 702
266 3562
266 6114
267 702
267 965
268 1226
269 6351
270 1240
270 6133
271 298
272 578
272 933
273 722
274 702
274 926
274 1240
275 702
275 3562
276 5684
276 6454
277 702
277 6348
278 702
279 928
279 1957
279 2175
279 3549
279 3562
279 3633
279 3969
279 6333
280 853
280 3603
280 5805
281 6454
282 2549
283 702
283 3562
284 2915
284 6348
285 2668
286 702
286 3968
287 294
287 298
287 518
287 549
287 569
287 669
287 702
287 703
287 791
287 914
287 1137
287 1274
287 1291
287 1674
287 1741
287 1747
287 1756
287 1801
287 1837
287 1890
287 1892
287 1898
287 1900
287 1902
287 1904
287 2042
287 2111
287 2117
287 2135
287 2342
287 2498
287 2517
287 2549
287 2552
287 2686
287 2820
287 2829
287 2915
287 2972
287 3221
287 3293
287 3303
287 3305
287 3325
287 3328
287 3334
287 3357
287 3374
287 3408
287 3492
287 3550
287 3562
287 3601
287 3848
287 3915
287 3952
287 4001
287 4007
287 4075
287 4201
287 4396
287 4437
287 4541
287 4545
287 4554
287 4564
287 4566
287 4573
287 4643
287 5389
287 5460
287 5475
287 5607
287 5697
287 6067
287 6114
287 6173
287 6206
288 702
289 298
289 1104
290 702
290 726
291 3952
292 294
293 294
294 298
294 312
294 368
294 378
294 379
294 514
294 569
294 601
294 622
294 669
294 684
294 694
294 702
294 726
294 792
294 914
294 938
294 1053
294 1056
294 1104
294 1126
294 1240
294 1276
294 1355
294 1424
294 1426
294 1741
294 1747
294 1801
294 1830
294 1843
294 1853
294 1870
294 1930
294 1935
294 2005
294 2042
294 2212
294 2498
294 2506
294 2549
294 2552
294 2604
294 2641
294 2686
294 2829
294 2915
294 2918
294 3129
294 3153
294 3258
294 3321
294 3355
294 3357
294 3381
294 3408
294 3425
294 3427
294 3429
294 3430
294 3432
294 3492
294 3507
294 3550
294 3562
294 3564
294 3672
294 3721
294 3787
294 3848
294 3933
294 3952
294 3968
294 4001
294 4007
294 4137
294 4184
294 4201
294 4324
294 4437
294 4514
294 4541
294 4545
294 4551
294 4566
294 4970
294 5007
294 5410
294 5463
294 5497
294 5512
294 5647
294 5651
294 5697
294 5720
294 5868
294 5933
294 6080
294 6082
294 6114
294 6173
294 6201
294 6260
294 6262
294 6366
294 6370
294 6396
294 6403
294 6406
294 6407
294 6416
294 6428
294 6454
294 6462
295 1551
295 2517
295 3551
295 3562
295 3905
295 3946
295 3948
295 5162
295 6454
296 3952
296 4594
297 702
298 669
298 702
298 726
298 1240
298 1255
298 1264
298 1750
298 1801
298 1843
298 1844
298 2498
298 2829
298 2915
298 3550
298 3562
298 4512
299 914
300 1053
300 1853
301 3952
302 312
302 702
302 1240
303 4558
304 914
304 5873
304 5979
305 702
305 3405
305 5697
307 3952
308 2857
308 3374
308 5389
309 3952
309 6351
310 2333
311 883
311 1274
311 5379
311 5410
312 428
312 443
312 702
312 938
312 1870
312 1993
312 2042
312 2242
312 2317
312 2415
312 2517
312 2549
312 2552
312 2799
312 2829
312 2918
312 3108
312 3385
312 3408
312 3492
312 3933
312 3968
312 4566
312 5001
312 5379
312 5504
312 5588
312 5647
312 5697
312 6260
312 6396
312 6403
312 6406
312 6428
312 6462
312 6468
313 2603
313 3301
313 5023
313 6454
314 2855
314 5574
315 5607
315 6421
316 317
316 424
316 553
316 2090
316 2565
316 2594
316 2778
316 2984
316 3017
316 3056
316 3202
316 3229
316 3270
316 3319
316 3602
316 4406
316 4441
316 4475
316 4571
316 4595
316 4636
316 4647
316 4698
316 4722
316 4752
316 4843
316 4860
316 4971
316 5060
316 5190
316 5379
316 5395
316 5396
316 5398
316 5610
317 424
317 702
318 3258
318 5410
319 2272
319 3013
319 5062
319 5379
319 5557
320 2013
320 5378
320 5484
321 3117
321 5401
322 5401
322 5557
323 5569
324 702
325 2391
326 702
326 1240
327 2261
327 3138
327 3216
327 3306
327 3483
327 4484
327 4534
327 5037
327 5097
327 5379
328 702
328 5651
329 6454
330 2342
330 5595
331 2549
331 6133
332 702
332 726
333 702
334 2932
334 4231
335 5714
336 343
336 2257
336 5401
337 2618
337 2748
337 3341
337 5401
338 2582
338 5401
339 5401
340 5401
341 5401
341 5437
342 2391
342 2855
342 3030
342 6454
344 1309
345 702
345 1741
346 2575
346 2700
347 528
347 2258
347 3054
347 5379
348 520
348 703
348 3305
349 2889
349 3562
349 4467
349 5499
349 6454
350 702
350 2915
351 3059
352 3321
352 5378
353 702
353 2549
354 557
354 2392
354 5378
355 561
355 3255
355 3297
355 5599
356 1240
357 415
357 562
357 2779
357 2951
357 3146
357 3301
357 3402
357 3568
357 4532
357 4581
357 4677
357 4875
357 5278
357 5379
357 5410
358 373
358 1756
358 2342
359 702
359 2549
359 3562
360 6226
361 3308
362 518
363 1956
364 3742
365 424
365 1240
365 5512
366 2291
367 3544
367 5378
367 6421
367 6454
368 702
368 726
368 1993
368 2829
368 2915
368 3329
368 5647
369 5463
370 3017
370 4001
370 5603
371 387
371 514
371 570
371 2239
371 2459
371 2687
371 3335
371 3342
371 4001
371 4454
371 4972
371 5379
371 5623
372 1854
373 2250
373 2361
374 454
375 914
376 6454
377 3494
378 1335
379 2829
379 3157
379 3272
379 5647
380 1240
380 3562
380 4040
381 1850
382 467
382 533
382 2250
382 2333
383 883
383 1300
383 3526
383 5512
383 5608
384 2325
384 2470
384 2774
384 2799
384 3138
384 3334
384 3571
384 5177
384 5379
384 5460
385 5595
386 401
387 439
387 570
387 703
387 1756
387 2288
387 2454
387 2459
387 2606
387 2792
387 2888
387 3002
387 3034
387 3044
387 3046
387 3093
387 3293
387 3295
387 3335
387 3338
387 3428
387 3447
387 3545
387 4404
387 4572
387 4772
387 4920
387 4926
387 5124
387 5172
387 5178
387 5401
387 5460
388 2379
388 2391
388 3047
388 3140
388 4932
388 5552
388 6454
389 1837
390 1274
390 5521
391 1268
391 5379
392 2343
392 2455
392 3021
392 3162
392 5379
392 5410
393 1240
393 3562
393 6348
394 1268
395 726
395 1240
396 722
397 4616
398 1756
399 722
400 1756
400 6421
401 722
402 726
402 3301
402 5379
402 5460
403 2776
403 3239
403 4001
404 5409
405 702
405 1756
405 1850
405 2915
405 3116
405 3334
405 3550
405 5460
406 3177
406 5378
407 519
407 584
407 703
407 2589
407 2752
407 4874
407 5552
407 6454
408 726
408 5697
409 702
409 726
409 1240
410 726
410 2000
410 2789
410 3969
410 4568
410 4627
410 5330
410 5373
410 5592
410 6028
410 6066
410 6343
411 3374
411 5379
411 5550
412 478
412 5512
413 722
414 2902
415 1274
415 1756
415 2529
415 2583
415 2964
415 3068
415 3193
415 3301
415 4451
415 4532
415 4583
415 5278
415 5606
415 5670
416 726
416 1240
416 2624
416 2867
416 2891
416 2892
416 2917
416 3083
416 3472
416 3562
417 3304
418 5552
419 424
419 3216
419 5595
420 702
420 2549
421 2269
421 5595
422 1756
422 2342
422 3141
423 722
424 702
424 1048
424 1240
424 1470
424 2231
424 2266
424 2289
424 2450
424 2537
424 2610
424 2962
424 3076
424 3301
424 3413
424 3550
424 4756
424 4931
424 5225
424 5392
424 5506
424 5533
424 5633
424 6454
425 722
426 883
426 2375
426 3608
426 5598
426 5608
427 3301
428 571
428 2351
428 2777
428 3144
428 3374
428 5414
428 5460
428 5534
428 5588
429 1016
429 3603
430 4424
431 2729
432 2965
433 702
433 2549
434 437
434 5379
434 5595
434 6454
435 2404
435 3301
435 3304
436 2809
437 1756
437 2377
437 3293
437 3334
437 3601
437 5379
437 5433
437 6454
438 726
438 1240
439 2316
440 702
440 3357
441 722
442 5618
442 6421
443 4001
443 5379
443 5460
444 1993
444 4137
444 5239
445 4231
446 4324
447 2609
448 5562
449 703
449 5414
450 2549
450 6173
451 3562
451 4551
452 2579
453 726
453 3968
453 6133
454 702
454 1756
454 3341
454 5555
455 726
455 1240
456 2005
456 2915
456 6348
457 485
457 1300
457 2926
457 4487
458 5392
459 1300
459 2663
459 2718
460 2342
461 1741
462 1741
463 2438
463 2446
463 2450
463 3261
463 3301
463 5063
463 5409
464 2391
465 702
465 6462
466 3070
466 3479
468 722
469 1756
469 2269
469 3260
469 3306
470 548
470 1271
470 1274
470 1668
470 2437
470 3285
470 3301
470 3334
470 3552
470 5379
470 5414
470 5460
470 5580
471 3562
471 6348
472 2737
472 3057
473 702
473 4201
474 702
474 3562
475 4927
475 5649
476 1757
476 3357
477 702
477 2915
478 703
478 767
478 2342
478 2809
478 3353
478 3562
478 4927
478 6454
479 1240
479 2552
480 4324
480 6348
481 1240
482 1240
482 1741
483 702
483 1240
484 3217
484 3430
485 3278
486 539
486 3031
486 3206
486 3321
486 3540
486 5380
487 2428
487 3472
487 6421
488 2290
488 5406
489 6430
490 702
491 2111
491 3578
491 4001
492 2549
492 6348
493 2391
494 542
494 3301
495 1756
495 2249
495 2931
495 3334
495 3374
495 4489
495 5552
495 6421
496 3781
496 4764
497 702
497 6260
498 722
499 2549
499 2915
499 4970
500 3293
501 703
501 5410
502 3550
502 6348
503 4544
504 5651
504 5677
505 2042
506 1268
506 3270
506 4871
507 702
507 2549
508 1891
508 3301
509 702
509 2549
510 702
510 2240
510 2358
510 3330
511 3384
512 516
512 2389
512 5381
512 6454
513 703
513 2475
513 2868
513 3075
513 3201
513 3301
513 3537
513 4490
513 4644
513 4988
513 5379
513 5460
513 6068
514 790
514 1424
514 2829
514 3138
514 3157
514 3351
514 3562
514 5379
514 5512
515 703
515 3162
515 3534
516 2391
516 2746
516 2989
516 3562
516 4840
516 4889
516 5027
516 5401
517 1300
517 5030
517 6454
518 1756
518 2434
518 2679
518 2709
518 2869
518 3091
518 3746
518 4428
518 4438
518 4526
518 4665
518 4738
518 5379
519 2319
520 2262
520 3213
520 4001
520 4508
521 2314
521 2966
522 2391
523 1756
523 1801
523 2264
523 2335
523 5629
524 722
524 914
525 2391
525 2855
526 3268
527 2700
528 2342
528 3374
528 3492
528 3596
528 5379
529 702
530 702
530 1240
530 3357
531 1756
532 2391
533 2309
534 4580
535 1240
535 3269
535 3562
535 4488
535 5063
535 5512
536 5409
537 551
537 3317
538 2896
539 2857
539 4086
539 5401
540 2857
541 702
541 1240
542 1756
542 2290
542 2388
542 4001
542 5424
543 2549
543 6348
544 3340
545 1742
546 3255
546 5416
547 3255
547 5416
547 6454
548 1276
550 578
550 702
550 803
550 809
550 3676
550 4293
550 6093
551 3317
552 3968
554 1271
554 1276
555 2877
556 914
556 3562
558 702
559 702
559 3562
560 702
560 3157
561 3610
561 5031
561 5046
561 5249
562 1756
563 2365
563 2634
563 2729
563 3171
563 3467
563 4707
563 4713
564 702
565 1240
565 3562
566 1742
567 702
567 5697
568 2549
568 4675
569 722
569 725
569 726
569 914
569 1240
569 1734
569 1801
569 1914
569 2915
569 3562
569 3740
569 5928
570 3138
570 5379
571 2517
571 3037
572 5410
573 5604
574 3274
574 4001
575 4566
576 1240
576 5651
577 1271
577 3210
577 5379
578 685
578 702
578 801
578 804
578 832
578 855
578 856
578 866
578 1136
578 1209
578 1240
578 1595
578 1646
578 1655
578 1908
578 2225
578 2653
578 3562
578 3849
578 4155
578 5151
578 5691
578 5988
578 6184
578 6454
579 4616
580 703
580 2829
581 2391
582 3306
582 5595
583 1756
583 2936
583 3334
583 3968
583 5728
584 2922
585 702
586 702
586 1240
586 6016
587 702
587 2549
588 1240
588 3562
589 2549
589 3562
590 702
590 2554
590 3997
591 702
591 3997
592 2549
593 914
594 702
594 2549
594 2915
595 726
595 6223
596 702
597 1240
598 702
598 2915
598 6368
599 702
599 1240
600 634
600 702
600 2829
600 3357
600 5677
600 5697
601 702
601 1240
601 1954
601 2067
601 2829
601 3113
601 3492
601 3562
601 5888
601 6096
602 726
602 1035
602 1036
602 1240
602 1762
602 1971
602 2884
602 3355
602 3795
602 5563
602 5992
603 726
603 2549
604 5007
606 3817
607 702
608 702
608 6348
609 702
610 702
611 1240
612 856
613 702
613 1240
614 1240
614 6348
615 702
616 2204
617 726
617 2549
618 3721
618 6462
619 702
619 1240
620 725
621 702
621 3357
622 828
622 2498
622 2829
622 2915
622 5414
622 5733
622 6114
622 6462
623 894
624 702
624 726
624 1240
624 5684
624 6173
625 2915
625 3968
626 722
627 702
627 3562
628 702
628 1240
628 3562
629 1240
630 3562
631 702
631 3562
631 6133
632 702
632 1993
632 1994
632 6133
632 6222
633 702
633 726
634 3550
635 2992
635 3562
636 725
637 1741
637 3562
638 722
639 722
640 1240
641 1226
641 3550
642 702
642 2549
643 3968
643 6348
645 2900
645 3562
646 1005
646 4551
647 702
647 3740
648 1040
648 4231
649 702
649 1642
649 3562
650 4927
651 853
651 2768
652 702
652 3562
653 702
653 4006
654 702
655 5465
656 855
656 1164
656 2768
657 2549
658 5677
659 2915
659 3922
660 5944
661 2552
662 702
662 2549
664 702
665 702
665 1240
666 702
666 3851
667 1741
667 3562
668 3562
669 726
669 914
669 1240
669 1801
669 2915
669 3562
669 3857
670 726
670 5697
670 6338
671 702
671 1240
672 3357
673 702
673 810
673 1602
673 1975
673 3453
673 4050
673 4356
673 6113
674 1023
674 5684
675 1240
675 3562
675 5128
676 3385
677 3598
677 6015
678 4201
678 4231
679 726
679 1240
680 1854
680 2687
681 1240
682 4649
683 702
683 1240
684 2829
684 2915
684 5289
684 5933
685 1154
685 3603
685 4447
686 2549
687 702
688 1222
688 1240
688 2829
688 3562
688 6462
689 698
689 702
689 726
689 806
689 968
689 978
689 1240
689 2904
689 2915
689 3550
689 3562
689 3576
689 3845
689 3866
689 4135
689 4139
689 4141
689 4239
689 4357
689 5374
689 5904
689 6238
690 3562
691 702
691 1324
691 1678
692 1979
692 3952
693 2552
694 5647
695 933
695 3603
697 698
697 5651
698 3032
699 4006
699 5509
699 6454
700 1240
701 1741
702 703
702 704
702 706
702 716
702 719
702 721
702 723
702 726
702 727
702 730
702 731
702 737
702 738
702 743
702 751
702 752
702 757
702 758
702 769
702 771
702 780
702 781
702 783
702 788
702 789
702 800
702 808
702 815
702 817
702 824
702 826
702 841
702 842
702 844
702 846
702 847
702 849
702 852
702 853
702 854
702 857
702 858
702 859
702 875
702 878
702 879
702 888
702 890
702 891
702 892
702 893
702 896
702 898
702 901
702 903
702 904
702 905
702 909
702 912
702 915
702 916
702 922
702 926
702 927
702 929
702 931
702 938
702 940
702 944
702 947
702 948
702 950
702 951
702 954
702 958
702 959
702 962
702 964
702 965
702 967
702 968
702 971
702 981
702 986
702 987
702 991
702 993
702 997
702 1001
702 1004
702 1005
702 1006
702 1009
702 1014
702 1022
702 1024
702 1026
702 1029
702 1031
702 1032
702 1041
702 1045
702 1046
702 1048
702 1059
702 1061
702 1062
702 1063
702 1067
702 1069
702 1073
702 1077
702 1079
702 1080
702 1081
702 1084
702 1086
702 1087
702 1088
702 1090
702 1091
702 1092
702 1093
702 1096
702 1099
702 1100
702 1102
702 1103
702 1107
702 1109
702 1117
702 1119
702 1124
702 1125
702 1128
702 1129
702 1134
702 1135
702 1139
702 1140
702 1144
702 1145
702 1150
702 1151
702 1158
702 1159
702 1162
702 1166
702 1168
702 1169
702 1171
702 1175
702 1176
702 1177
702 1181
702 1186
702 1189
702 1190
702 1191
702 1198
702 1204
702 1205
702 1213
702 1218
702 1219
702 1224
702 1226
702 1230
702 1231
702 1233
702 1234
702 1236
702 1240
702 1246
702 1281
702 1282
702 1288
702 1289
702 1292
702 1294
702 1295
702 1297
702 1309
702 1347
702 1353
702 1361
702 1366
702 1392
702 1403
702 1411
702 1425
702 1431
702 1433
702 1435
702 1445
702 1449
702 1466
702 1479
702 1497
702 1514
702 1530
702 1549
702 1558
702 1574
702 1577
702 1582
702 1583
702 1584
702 1588
702 1589
702 1593
702 1605
702 1608
702 1612
702 1613
702 1615
702 1617
702 1618
702 1622
702 1626
702 1627
702 1628
702 1630
702 1631
702 1632
702 1634
702 1635
702 1636
702 1640
702 1643
702 1651
702 1653
702 1659
702 1664
702 1665
702 1667
702 1669
702 1674
702 1677
702 1680
702 1681
702 1684
702 1690
702 1692
702 1697
702 1700
702 1704
702 1705
702 1710
702 1711
702 1712
702 1716
702 1723
702 1729
702 1736
702 1737
702 1738
702 1741
702 1745
702 1747
702 1748
702 1749
702 1753
702 1756
702 1757
702 1761
702 1764
702 1766
702 1769
702 1771
702 1772
702 1774
702 1778
702 1781
702 1786
702 1787
702 1789
702 1795
702 1801
702 1802
702 1803
702 1804
702 1805
702 1808
702 1814
702 1816
702 1818
702 1820
702 1824
702 1825
702 1826
702 1827
702 1828
702 1831
702 1833
702 1834
702 1839
702 1840
702 1845
702 1846
702 1852
702 1855
702 1857
702 1861
702 1863
702 1864
702 1866
702 1867
702 1869
702 1870
702 1871
702 1872
702 1885
702 1887
702 1897
702 1911
702 1926
702 1934
702 1945
702 1963
702 1967
702 1973
702 1976
702 1983
702 1992
702 1997
702 1998
702 2002
702 2004
702 2005
702 2006
702 2010
702 2011
702 2012
702 2016
702 2020
702 2021
702 2022
702 2023
702 2024
702 2026
702 2034
702 2042
702 2051
702 2052
702 2053
702 2054
702 2062
702 2065
702 2066
702 2071
702 2076
702 2078
702 2079
702 2080
702 2081
702 2082
702 2088
702 2092
702 2095
702 2096
702 2097
702 2098
702 2099
702 2100
702 2103
702 2105
702 2106
702 2107
702 2112
702 2115
702 2123
702 2124
702 2126
702 2128
702 2129
702 2131
702 2134
702 2141
702 2150
702 2151
702 2153
702 2155
702 2158
702 2159
702 2161
702 2163
702 2164
702 2165
702 2171
702 2172
702 2173
702 2178
702 2179
702 2181
702 2185
702 2187
702 2189
702 2191
702 2193
702 2199
702 2205
702 2207
702 2209
702 2212
702 2214
702 2215
702 2218
702 2219
702 2224
702 2226
702 2228
702 2231
702 2250
702 2259
702 2277
702 2281
702 2287
702 2289
702 2292
702 2301
702 2306
702 2307
702 2313
702 2318
702 2320
702 2327
702 2332
702 2345
702 2347
702 2350
702 2360
702 2373
702 2380
702 2390
702 2393
702 2408
702 2457
702 2465
702 2477
702 2486
702 2489
702 2490
702 2498
702 2503
702 2517
702 2532
702 2549
702 2551
702 2552
702 2566
702 2585
702 2598
702 2600
702 2625
702 2639
702 2640
702 2646
702 2648
702 2649
702 2661
702 2667
702 2668
702 2671
702 2681
702 2686
702 2693
702 2698
702 2700
702 2703
702 2704
702 2712
702 2713
702 2742
702 2745
702 2750
702 2759
702 2791
702 2793
702 2796
702 2797
702 2810
702 2817
702 2826
702 2829
702 2833
702 2854
702 2857
702 2861
702 2873
702 2879
702 2880
702 2882
702 2883
702 2900
702 2902
702 2915
702 2918
702 2919
702 2942
702 2951
702 2952
702 2960
702 2973
702 2975
702 2976
702 2977
702 2978
702 2983
702 2989
702 2998
702 3006
702 3010
702 3012
702 3015
702 3020
702 3036
702 3038
702 3049
702 3051
702 3074
702 3080
702 3088
702 3097
702 3105
702 3106
702 3114
702 3127
702 3133
702 3138
702 3152
702 3155
702 3184
702 3190
702 3200
702 3211
702 3228
702 3258
702 3271
702 3272
702 3281
702 3284
702 3287
702 3299
702 3301
702 3311
702 3357
702 3361
702 3379
702 3385
702 3400
702 3408
702 3411
702 3415
702 3451
702 3452
702 3455
702 3457
702 3463
702 3467
702 3474
702 3475
702 3480
702 3482
702 3488
702 3490
702 3492
702 3494
702 3496
702 3503
702 3506
702 3520
702 3531
702 3550
702 3555
702 3557
702 3558
702 3562
702 3564
702 3570
702 3579
702 3586
702 3587
702 3592
702 3594
702 3599
702 3603
702 3613
702 3615
702 3620
702 3621
702 3622
702 3623
702 3624
702 3626
702 3631
702 3632
702 3634
702 3642
702 3649
702 3650
702 3652
702 3656
702 3659
702 3661
702 3665
702 3671
702 3675
702 3681
702 3683
702 3691
702 3702
702 3704
702 3710
702 3716
702 3717
702 3720
702 3723
702 3729
702 3734
702 3740
702 3742
702 3743
702 3752
702 3769
702 3774
702 3789
702 3792
702 3800
702 3802
702 3804
702 3806
702 3817
702 3821
702 3825
702 3832
702 3841
702 3848
702 3851
702 3856
702 3868
702 3870
702 3871
702 3885
702 3892
702 3894
702 3901
702 3909
702 3915
702 3923
702 3933
702 3942
702 3951
702 3956
702 3958
702 3964
702 3968
702 3980
702 3987
702 3995
702 4007
702 4032
702 4036
702 4046
702 4062
702 4064
702 4066
702 4068
702 4070
702 4071
702 4077
702 4078
702 4080
702 4094
702 4100
702 4106
702 4107
702 4109
702 4116
702 4118
702 4119
702 4137
702 4142
702 4145
702 4147
702 4150
702 4151
702 4152
702 4154
702 4157
702 4170
702 4171
702 4184
702 4188
702 4191
702 4196
702 4201
702 4205
702 4209
702 4211
702 4214
702 4224
702 4229
702 4231
702 4232
702 4244
702 4258
702 4262
702 4269
702 4272
702 4278
702 4279
702 4280
702 4287
702 4307
702 4308
702 4310
702 4314
702 4315
702 4318
702 4324
702 4333
702 4335
702 4337
702 4339
702 4350
702 4356
702 4357
702 4365
702 4370
702 4373
702 4375
702 4377
702 4387
702 4391
702 4394
702 4414
702 4425
702 4437
702 4443
702 4445
702 4446
702 4450
702 4453
702 4456
702 4457
702 4462
702 4466
702 4491
702 4495
702 4496
702 4497
702 4501
702 4507
702 4514
702 4516
702 4520
702 4522
702 4525
702 4527
702 4530
702 4531
702 4535
702 4537
702 4540
702 4541
702 4544
702 4545
702 4547
702 4565
702 4566
702 4567
702 4570
702 4574
702 4575
702 4582
702 4584
702 4587
702 4588
702 4593
702 4597
702 4630
702 4638
702 4649
702 4695
702 4699
702 4700
702 4719
702 4723
702 4757
702 4787
702 4788
702 4821
702 4848
702 4855
702 4869
702 4881
702 4883
702 4895
702 4900
702 4912
702 4914
702 4923
702 4924
702 4925
702 4927
702 4928
702 4941
702 4952
702 4953
702 4956
702 4959
702 4960
702 4961
702 4963
702 4967
702 4970
702 4978
702 4980
702 4987
702 4997
702 5001
702 5003
702 5004
702 5007
702 5010
702 5013
702 5015
702 5016
702 5019
702 5025
702 5026
702 5033
702 5036
702 5038
702 5039
702 5041
702 5044
702 5049
702 5050
702 5051
702 5053
702 5056
702 5057
702 5067
702 5077
702 5080
702 5081
702 5084
702 5090
702 5091
702 5092
702 5094
702 5098
702 5099
702 5107
702 5108
702 5109
702 5114
702 5125
702 5127
702 5134
702 5135
702 5136
702 5138
702 5142
702 5152
702 5153
702 5158
702 5162
702 5175
702 5185
702 5189
702 5193
702 5194
702 5205
702 5206
702 5216
702 5222
702 5223
702 5226
702 5227
702 5228
702 5231
702 5232
702 5235
702 5236
702 5242
702 5245
702 5250
702 5252
702 5256
702 5258
702 5270
702 5271
702 5273
702 5274
702 5276
702 5280
702 5288
702 5293
702 5294
702 5295
702 5301
702 5302
702 5309
702 5312
702 5315
702 5317
702 5319
702 5324
702 5328
702 5331
702 5334
702 5336
702 5340
702 5341
702 5347
702 5349
702 5351
702 5352
702 5353
702 5354
702 5355
702 5357
702 5360
702 5361
702 5363
702 5365
702 5367
702 5371
702 5372
702 5384
702 5391
702 5407
702 5412
702 5443
702 5444
702 5450
702 5453
702 5456
702 5461
702 5462
702 5463
702 5465
702 5473
702 5476
702 5487
702 5492
702 5497
702 5502
702 5509
702 5525
702 5527
702 5529
702 5530
702 5532
702 5534
702 5539
702 5541
702 5553
702 5571
702 5576
702 5581
702 5587
702 5595
702 5614
702 5615
702 5635
702 5636
702 5639
702 5643
702 5644
702 5645
702 5646
702 5647
702 5648
702 5649
702 5650
702 5651
702 5659
702 5663
702 5668
702 5669
702 5671
702 5673
702 5684
702 5685
702 5694
702 5698
702 5703
702 5704
702 5705
702 5706
702 5707
702 5714
702 5715
702 5721
702 5726
702 5728
702 5734
702 5735
702 5738
702 5751
702 5753
702 5757
702 5758
702 5759
702 5760
702 5761
702 5763
702 5764
702 5765
702 5767
702 5773
702 5775
702 5776
702 5779
702 5780
702 5782
702 5784
702 5785
702 5790
702 5795
702 5796
702 5797
702 5799
702 5800
702 5804
702 5807
702 5808
702 5810
702 5811
702 5813
702 5814
702 5815
702 5816
702 5818
702 5820
702 5821
702 5822
702 5826
702 5828
702 5831
702 5832
702 5835
702 5836
702 5837
702 5838
702 5841
702 5843
702 5844
702 5847
702 5860
702 5861
702 5864
702 5871
702 5876
702 5885
702 5889
702 5891
702 5892
702 5899
702 5902
702 5903
702 5906
702 5907
702 5909
702 5913
702 5915
702 5916
702 5919
702 5922
702 5924
702 5929
702 5931
702 5938
702 5940
702 5946
702 5950
702 5952
702 5953
702 5961
702 5964
702 5965
702 5966
702 5969
702 5976
702 5978
702 5980
702 5981
702 5982
702 5985
702 5987
702 5989
702 5994
702 5997
702 5999
702 6006
702 6007
702 6008
702 6009
702 6010
702 6011
702 6012
702 6013
702 6014
702 6016
702 6019
702 6020
702 6024
702 6026
702 6027
702 6030
702 6032
702 6034
702 6038
702 6041
702 6047
702 6054
702 6061
702 6063
702 6065
702 6066
702 6067
702 6068
702 6072
702 6077
702 6078
702 6079
702 6083
702 6085
702 6091
702 6092
702 6094
702 6095
702 6096
702 6099
702 6101
702 6104
702 6105
702 6112
702 6114
702 6127
702 6129
702 6131
702 6133
702 6135
702 6136
702 6140
702 6142
702 6144
702 6146
702 6147
702 6148
702 6150
702 6154
702 6156
702 6157
702 6158
702 6161
702 6163
702 6164
702 6167
702 6169
702 6170
702 6171
702 6173
702 6179
702 6180
702 6182
702 6186
702 6194
702 6196
702 6198
702 6199
702 6202
702 6204
702 6218
702 6219
702 6221
702 6224
702 6225
702 6226
702 6227
702 6228
702 6230
702 6234
702 6235
702 6239
702 6246
702 6247
702 6248
702 6249
702 6250
702 6254
702 6255
702 6257
702 6258
702 6262
702 6266
702 6267
702 6268
702 6277
702 6279
702 6283
702 6284
702 6287
702 6292
702 6296
702 6298
702 6301
702 6302
702 6303
702 6304
702 6306
702 6310
702 6315
702 6316
702 6317
702 6319
702 6320
702 6322
702 6325
702 6329
702 6330
702 6331
702 6332
702 6335
702 6336
702 6340
702 6341
702 6346
702 6348
702 6353
702 6354
702 6358
702 6360
702 6365
702 6366
702 6371
702 6372
702 6373
702 6377
702 6379
702 6381
702 6382
702 6383
702 6384
702 6385
702 6386
702 6387
702 6388
702 6389
702 6390
702 6396
702 6404
702 6405
702 6406
702 6410
702 6411
702 6412
702 6418
702 6419
702 6420
702 6421
702 6424
702 6430
702 6431
702 6432
702 6433
702 6434
702 6438
702 6439
702 6443
702 6449
702 6450
702 6451
702 6452
702 6454
702 6455
702 6457
702 6460
702 6462
702 6468
702 6469
702 6470
703 706
703 892
703 1104
703 1201
703 1258
703 1268
703 1271
703 1300
703 1654
703 1756
703 1760
703 1850
703 1891
703 2048
703 2233
703 2239
703 2262
703 2265
703 2288
703 2289
703 2311
703 2322
703 2334
703 2344
703 2346
703 2349
703 2399
703 2444
703 2449
703 2454
703 2491
703 2518
703 2578
703 2604
703 2616
703 2657
703 2672
703 2792
703 2802
703 2823
703 2872
703 2888
703 2918
703 2927
703 2931
703 2948
703 2959
703 3002
703 3008
703 3034
703 3046
703 3093
703 3103
703 3130
703 3176
703 3198
703 3208
703 3226
703 3229
703 3247
703 3260
703 3266
703 3286
703 3287
703 3297
703 3301
703 3316
703 3325
703 3329
703 3334
703 3337
703 3372
703 3428
703 3454
703 3502
703 3575
703 3611
703 3616
703 3918
703 4001
703 4164
703 4425
703 4480
703 4564
703 4662
703 4706
703 4719
703 4824
703 4845
703 4972
703 5028
703 5065
703 5070
703 5090
703 5225
703 5307
703 5378
703 5379
703 5391
703 5401
703 5419
703 5431
703 5435
703 5464
703 5482
703 5494
703 5497
703 5500
703 5513
703 5536
703 5557
703 5578
703 5590
703 5591
703 5604
703 5623
703 6469
704 757
704 1235
704 1356
704 1394
704 1405
704 1480
704 1487
704 1535
704 1579
704 2498
704 3085
704 3364
704 3691
704 3751
704 3859
704 3988
704 4026
704 4037
704 4143
704 4159
704 4213
704 4218
704 4226
704 4299
704 4322
704 4327
704 4615
704 4624
704 4628
704 4642
704 4678
704 4712
704 4717
704 4741
705 726
705 3562
706 815
706 816
706 817
706 1891
706 3494
706 4927
707 880
707 1174
707 3562
707 4927
707 6430
708 4927
709 3385
710 1240
711 792
711 1424
711 6351
712 3562
712 4566
713 3550
713 6462
714 2829
714 3562
714 5651
715 4070
715 6135
716 960
716 1240
716 1741
716 2064
716 2182
716 2829
716 3558
716 3562
716 4433
716 4561
716 5012
716 6462
717 5677
718 1240
718 2915
719 2829
719 3968
720 791
720 3337
721 726
721 1870
721 3562
722 746
722 766
722 768
722 1000
722 1318
722 1452
722 1453
722 1456
722 1459
722 1460
722 1461
722 1463
722 1465
722 1467
722 1472
722 1473
722 1475
722 1476
722 1477
722 1478
722 1481
722 1483
722 1486
722 1489
722 1490
722 1492
722 1493
722 1495
722 1499
722 1500
722 1504
722 1505
722 1506
722 1508
722 1522
722 1528
722 1532
722 1534
722 1591
722 1592
722 1599
722 1728
722 1875
722 1905
722 1915
722 1960
722 2047
722 2750
722 3147
722 3476
722 3562
722 4124
722 4445
722 5110
722 5181
722 5182
722 5265
722 5928
722 5940
722 5955
722 5962
722 5963
722 5973
722 5975
722 6001
723 1870
724 3804
725 748
725 1601
725 1603
725 1638
725 1650
725 1728
725 1986
725 1990
725 5304
725 5873
725 5959
726 734
726 738
726 759
726 794
726 810
726 858
726 874
726 877
726 907
726 908
726 914
726 967
726 980
726 995
726 998
726 1004
726 1029
726 1048
726 1054
726 1055
726 1065
726 1067
726 1072
726 1078
726 1092
726 1122
726 1126
726 1143
726 1147
726 1180
726 1184
726 1218
726 1229
726 1240
726 1352
726 1362
726 1449
726 1540
726 1545
726 1552
726 1584
726 1604
726 1607
726 1611
726 1621
726 1633
726 1647
726 1660
726 1669
726 1686
726 1693
726 1701
726 1703
726 1710
726 1731
726 1736
726 1739
726 1741
726 1743
726 1747
726 1749
726 1758
726 1764
726 1768
726 1773
726 1803
726 1817
726 1822
726 1834
726 1860
726 1862
726 1870
726 1873
726 1916
726 1953
726 1954
726 1961
726 1969
726 1976
726 1996
726 2031
726 2033
726 2041
726 2042
726 2059
726 2070
726 2085
726 2088
726 2092
726 2093
726 2099
726 2102
726 2146
726 2157
726 2169
726 2170
726 2178
726 2210
726 2332
726 2360
726 2363
726 2387
726 2435
726 2457
726 2463
726 2477
726 2549
726 2552
726 2563
726 2573
726 2576
726 2598
726 2625
726 2627
726 2632
726 2668
726 2675
726 2686
726 2729
726 2754
726 2768
726 2770
726 2783
726 2791
726 2793
726 2804
726 2806
726 2829
726 2830
726 2852
726 2856
726 2860
726 2914
726 2915
726 2919
726 2924
726 2925
726 2977
726 3004
726 3036
726 3117
726 3148
726 3152
726 3258
726 3301
726 3321
726 3357
726 3419
726 3449
726 3463
726 3473
726 3475
726 3503
726 3542
726 3550
726 3562
726 3586
726 3587
726 3600
726 3615
726 3619
726 3622
726 3640
726 3642
726 3654
726 3657
726 3660
726 3668
726 3674
726 3681
726 3704
726 3720
726 3738
726 3742
726 3788
726 3791
726 3802
726 3805
726 3817
726 3823
726 3824
726 3848
726 3858
726 3901
726 3910
726 3914
726 3915
726 3931
726 3933
726 3942
726 3952
726 3968
726 3981
726 4007
726 4034
726 4085
726 4112
726 4130
726 4148
726 4150
726 4158
726 4201
726 4238
726 4245
726 4267
726 4269
726 4275
726 4318
726 4329
726 4333
726 4355
726 4495
726 4498
726 4507
726 4545
726 4566
726 4593
726 4594
726 4626
726 4747
726 4767
726 4781
726 4793
726 4894
726 4927
726 4928
726 4934
726 4966
726 4970
726 4977
726 5001
726 5013
726 5039
726 5051
726 5075
726 5076
726 5090
726 5091
726 5129
726 5149
726 5159
726 5165
726 5200
726 5206
726 5208
726 5263
726 5270
726 5275
726 5286
726 5302
726 5316
726 5347
726 5367
726 5371
726 5401
726 5439
726 5476
726 5488
726 5528
726 5535
726 5582
726 5600
726 5628
726 5645
726 5647
726 5663
726 5695
726 5696
726 5697
726 5702
726 5714
726 5728
726 5729
726 5731
726 5732
726 5734
726 5742
726 5751
726 5780
726 5784
726 5811
726 5819
726 5831
726 5859
726 5860
726 5861
726 5886
726 5890
726 5894
726 5920
726 5946
726 5949
726 5969
726 5989
726 5993
726 5995
726 5999
726 6003
726 6005
726 6019
726 6024
726 6027
726 6032
726 6035
726 6058
726 6083
726 6120
726 6121
726 6133
726 6135
726 6136
726 6143
726 6165
726 6173
726 6202
726 6205
726 6217
726 6232
726 6233
726 6260
726 6265
726 6276
726 6282
726 6287
726 6288
726 6299
726 6302
726 6308
726 6309
726 6333
726 6338
726 6339
726 6341
726 6349
726 6396
726 6399
726 6403
726 6411
726 6412
726 6427
726 6432
726 6434
726 6444
726 6454
726 6456
726 6462
726 6468
726 6469
726 6471
727 1240
727 2042
727 2915
727 3643
727 3968
727 4970
727 5776
728 5714
729 3637
729 3952
729 5342
729 6373
730 5674
731 1785
731 5697
732 3562
733 1741
733 6348
734 1240
734 2915
735 4231
736 2829
736 6135
736 6462
739 933
739 1692
739 3813
740 3562
740 5779
741 4375
742 2494
742 3494
742 6454
743 1240
743 2549
743 3562
743 4201
744 817
744 6464
745 1028
745 1911
745 1998
745 2220
745 2601
745 3277
745 3488
745 3562
745 3595
745 4541
745 5144
745 5327
745 5413
745 5697
746 1462
746 5296
747 6333
750 5651
752 1983
752 6348
753 6462
754 1056
755 2042
756 4566
757 1107
757 6213
760 4927
761 1854
761 2495
762 1424
762 2382
763 3357
765 5516
767 3157
767 3272
769 6348
770 3408
770 4158
771 6082
772 3550
772 6173
773 1734
774 3550
774 5642
776 1310
777 2201
778 1310
779 805
779 1240
779 3562
781 2549
781 3562
782 2201
783 3562
784 3405
784 3562
785 4178
785 6173
786 4231
787 1850
787 3157
787 5379
787 5460
787 6454
789 1240
790 2201
792 1202
792 1240
792 1313
792 3173
792 3554
792 4675
792 5246
792 5498
792 5545
792 5776
793 3562
794 3562
795 2915
795 3357
795 6348
795 6468
796 1240
796 6182
797 3562
797 5677
798 5647
799 3562
800 2549
801 2768
801 6252
802 1240
802 3562
804 1240
806 6226
807 4541
808 5651
808 6152
810 3562
813 1240
813 1741
813 3562
814 817
815 816
815 3603
815 3691
815 3813
815 6328
816 817
816 4882
816 6328
817 819
817 1016
817 1113
817 1154
817 1199
817 1217
817 1655
817 1672
817 1947
817 1980
817 2068
817 2467
817 3462
817 3494
817 3603
817 3673
817 4091
817 4155
817 4384
817 4882
817 4940
817 5218
817 5279
817 5291
817 5479
817 5689
817 5766
817 5851
817 5988
817 6037
817 6046
817 6053
817 6184
817 6242
817 6328
817 6402
817 6408
818 3603
818 6328
820 4927
821 2653
822 3393
823 2915
823 6462
824 3562
824 3604
824 6446
825 1328
825 1668
827 6472
828 1281
828 2915
829 4927
830 2549
831 1240
831 2549
833 3385
833 5697
834 1240
834 1424
834 1691
834 1706
834 1829
834 1876
834 2133
834 2496
834 2497
834 2702
834 5455
834 5664
834 6264
835 2494
836 6348
837 5697
837 6389
838 1424
839 853
839 6059
840 853
840 6059
841 6348
843 6083
843 6348
844 1240
844 1945
845 3968
845 6348
846 3562
847 1226
848 2915
848 6348
850 1226
850 6348
851 1077
851 1741
851 3670
852 3562
853 1240
853 1692
853 1784
853 3360
853 5376
853 6172
853 6328
854 1785
855 2140
855 4173
856 3346
857 6348
858 1240
858 2549
858 3562
859 1240
859 2549
860 3562
860 5651
860 6173
861 1240
861 2374
861 2383
861 2386
861 2873
861 2996
861 3073
861 3112
861 3150
861 3279
861 3375
861 4859
861 5426
861 5562
862 2915
863 1240
863 3858
864 6333
865 2453
865 3550
866 1561
867 3562
867 5057
868 1240
871 3562
871 3952
872 3968
872 6173
873 4140
875 5728
876 1002
876 1145
876 1240
876 2549
876 3382
877 3562
878 1240
879 1240
881 4006
882 1240
882 2589
882 2651
882 6413
883 4590
883 4846
883 4902
883 5608
883 6454
884 3357
885 6402
885 6454
886 3464
886 6348
886 6374
887 1240
887 5697
888 1240
888 2549
889 2549
889 3562
890 3562
892 6454
894 3357
894 5697
895 3550
897 3562
899 2549
900 2549
900 5651
901 2083
901 4201
902 5675
905 2549
906 4231
908 1786
908 1870
908 3562
909 2686
910 3562
910 3915
911 1240
912 5651
913 6133
914 1104
914 1240
914 1243
914 1261
914 1454
914 1456
914 1457
914 1486
914 1504
914 1639
914 1656
914 2211
914 2915
914 3521
914 3857
914 5059
914 5265
914 5857
914 5958
914 5977
914 6361
915 1149
915 1240
915 1732
915 1859
915 3033
915 4381
915 5488
915 6032
915 6461
917 1048
918 2549
918 3562
919 1222
919 1359
919 1415
920 2249
920 2648
920 2760
920 2872
920 3314
920 3334
920 3577
920 4511
920 5389
920 5410
920 5460
920 5536
921 3952
922 1741
923 1240
923 3562
924 1240
924 3562
925 6083
926 1240
926 2549
926 3357
926 3562
926 5223
930 1240
930 1894
930 5651
931 1240
931 3562
932 1240
932 2915
932 3562
933 1240
933 1294
933 1692
933 5647
933 6263
933 6462
934 6133
935 2549
935 2915
936 1202
936 3952
937 3784
937 3952
938 1240
938 2829
938 2915
938 3562
938 5910
939 6141
940 2552
942 1226
942 3506
944 5697
945 3357
946 3448
947 3968
948 1741
949 5697
950 6403
951 1240
951 3562
952 2042
952 4201
953 4566
955 4927
956 1240
956 1424
956 3750
957 2552
958 2549
959 5697
961 3562
961 4514
963 2042
965 1550
965 2278
965 5370
965 6199
966 1240
966 2549
967 3738
968 1240
969 3550
970 5706
971 1240
972 1240
972 3952
973 3562
973 4201
974 2667
975 1240
975 6009
976 1637
976 6012
977 3848
978 3562
979 1240
979 2915
979 6135
980 4201
982 5942
982 6396
983 6173
984 1226
984 3357
984 4240
985 1741
985 2915
986 1281
986 2498
986 2829
986 2915
986 5674
986 6462
987 2902
988 4231
990 4927
991 6173
992 4201
994 1859
994 2549
995 2549
996 1197
996 1659
996 3762
996 6462
997 1240
997 3562
997 5939
997 6468
998 3562
999 1240
999 3755
999 5788
1003 1240
1003 3562
1003 6348
1004 1240
1005 1013
1005 1044
1005 1713
1005 2060
1005 3567
1005 3600
1005 4161
1005 5241
1005 5768
1005 5819
1005 5898
1006 3562
1007 5007
1007 5647
1008 5007
1008 5647
1009 1240
1010 1240
1010 3562
1011 1240
1011 3492
1012 1240
1013 1240
1015 5001
1016 3603
1016 6311
1016 6454
1017 1417
1017 5051
1018 1863
1019 1240
1019 2549
1020 5651
1020 6348
1021 4558
1022 1998
1024 1240
1025 3968
1027 2549
1028 3464
1028 3562
1028 6468
1029 1240
1029 5651
1030 4927
1031 2549
1032 3562
1033 2686
1034 6462
1035 1564
1035 1859
1036 1240
1036 2549
1037 1240
1037 2549
1038 1240
1038 2549
1039 1859
1039 5079
1040 2198
1040 2584
1040 3887
1040 4231
1040 4392
1040 5115
1040 6076
1040 6098
1040 6141
1041 2549
1041 3357
1043 6125
1045 3550
1045 3562
1046 1328
1047 4231
1048 1240
1048 1689
1048 3562
1048 4271
1048 4388
1048 4968
1048 5346
1048 5375
1048 5863
1048 6271
1048 6454
1049 1240
1049 2915
1050 3562
1051 2517
1052 3603
1053 1130
1053 1424
1053 3562
1053 6107
1054 2549
1054 3562
1055 3562
1056 1424
1056 3562
1056 5654
1056 5740
1056 6193
1057 3562
1058 1240
1058 2915
1059 3562
1059 6338
1060 3562
1060 6454
1064 3385
1065 1870
1065 3562
1066 1786
1066 3550
1066 4201
1067 1870
1067 3562
1067 4324
1069 2549
1071 5647
1074 1741
1075 4231
1076 2204
1077 2732
1077 3670
1078 6468
1080 3562
1081 4320
1081 5651
1081 5697
1081 6137
1082 4232
1083 6173
1085 5697
1086 1240
1087 3562
1089 4201
1089 5098
1092 1240
1093 1240
1094 1240
1094 2549
1095 1240
1095 3952
1096 3550
1097 2915
1097 3562
1098 6454
1099 1240
1099 2549
1099 3562
1101 6133
1102 3550
1102 5647
1103 1741
1104 1105
1104 1127
1104 1137
1104 1141
1104 1201
1104 1424
1104 1426
1104 1889
1104 2908
1104 3157
1104 3334
1104 3374
1104 4943
1104 5414
1104 5507
1104 5595
1104 5933
1104 6201
1104 6454
1105 1891
1105 3334
1106 5697
1107 5674
1108 3603
1108 6328
1110 2422
1111 6468
1112 4231
1112 4376
1114 1854
1115 1854
1116 2549
1117 3562
1118 1854
1120 1854
1121 1854
1122 6361
1123 3562
1124 3357
1126 2498
1126 2915
1126 4566
1129 1240
1130 1741
1131 4927
1132 4927
1133 3492
1133 6462
1134 1240
1135 5651
1136 1672
1137 1138
1137 2044
1137 2255
1137 2274
1137 2592
1137 2936
1137 3266
1137 3388
1137 5400
1137 5616
1141 5414
1143 1240
1144 3562
1146 5714
1146 6462
1147 3550
1147 3562
1148 1240
1149 1240
1150 2552
1151 5647
1152 3702
1153 2829
1153 6290
1153 6462
1154 3603
1155 6333
1156 5651
1156 6348
1157 2549
1158 2915
1160 1240
1161 6133
1162 2915
1162 3001
1162 3736
1162 4278
1163 4201
1163 6348
1164 2195
1165 3562
1166 5651
1167 5651
1167 5697
1168 6348
1169 3562
1170 2413
1170 4231
1171 1408
1172 2549
1173 1341
1175 2549
1177 1240
1178 2549
1178 2915
1179 1408
1179 2097
1180 2942
1182 2549
1183 5770
1183 6402
1184 6228
1185 2942
1187 6348
1188 1859
1189 1741
1190 2549
1190 6135
1191 3562
1192 2042
1193 1240
1193 6348
1195 2058
1195 4201
1195 6348
1196 2042
1196 2915
1198 4566
1199 2494
1199 6464
1201 3301
1201 3334
1201 5497
1202 1424
1203 2768
1203 4471
1206 1854
1207 5051
1208 3357
1209 5243
1210 2549
1210 2915
1211 1240
1211 3562
1212 1240
1212 3562
1213 4942
1214 3157
1214 3272
1215 1240
1215 3562
1216 6133
1217 3603
1217 6454
1219 3357
1220 1240
1221 3301
1221 3550
1222 1247
1222 1265
1222 1279
1222 1361
1222 1372
1222 1382
1222 1383
1222 1396
1222 1423
1222 1427
1222 1471
1222 1474
1222 1573
1222 1575
1222 2765
1222 2824
1222 2829
1222 2915
1222 3562
1222 3679
1222 3689
1222 3703
1222 3718
1222 3739
1222 3745
1222 3786
1222 3793
1222 3891
1222 3924
1222 3930
1222 3949
1222 3973
1222 3975
1222 3976
1222 3996
1222 4042
1222 4043
1222 4069
1222 4072
1222 4073
1222 4076
1222 4084
1222 4206
1222 4301
1222 4302
1222 4306
1222 4309
1222 4342
1222 4344
1222 4635
1222 4737
1222 4740
1222 4741
1222 4743
1222 4745
1222 4753
1222 4764
1222 4787
1222 4798
1222 4808
1222 4861
1222 5728
1222 6454
1223 3742
1223 5714
1225 1226
1226 1326
1226 1466
1226 1895
1226 1987
1226 2005
1226 2173
1226 2177
1226 2735
1226 2915
1226 3440
1226 3812
1226 4525
1226 4596
1226 5186
1226 5241
1226 5849
1226 5967
1226 6039
1226 6077
1226 6165
1226 6169
1226 6266
1226 6461
1227 3562
1230 1240
1231 2549
1231 6348
1232 2204
1234 6136
1235 6462
1236 1246
1236 1416
1236 2765
1236 4025
1236 4741
1236 4808
1237 1741
1238 1438
1238 1439
1238 1782
1238 3787
1239 1245
1239 4652
1239 6454
1240 1277
1240 1280
1240 1296
1240 1342
1240 1367
1240 1392
1240 1403
1240 1408
1240 1409
1240 1413
1240 1417
1240 1430
1240 1431
1240 1471
1240 1539
1240 1549
1240 1564
1240 1574
1240 1586
1240 1587
1240 1607
1240 1615
1240 1623
1240 1634
1240 1635
1240 1669
1240 1674
1240 1680
1240 1697
1240 1701
1240 1703
1240 1705
1240 1711
1240 1715
1240 1716
1240 1719
1240 1735
1240 1741
1240 1747
1240 1751
1240 1756
1240 1757
1240 1758
1240 1761
1240 1767
1240 1768
1240 1769
1240 1771
1240 1775
1240 1781
1240 1785
1240 1786
1240 1788
1240 1790
1240 1791
1240 1792
1240 1801
1240 1802
1240 1808
1240 1815
1240 1819
1240 1820
1240 1834
1240 1848
1240 1855
1240 1860
1240 1865
1240 1869
1240 1872
1240 1899
1240 1929
1240 1945
1240 1949
1240 1966
1240 1967
1240 1988
1240 1997
1240 2001
1240 2011
1240 2018
1240 2021
1240 2022
1240 2027
1240 2035
1240 2036
1240 2042
1240 2050
1240 2052
1240 2058
1240 2059
1240 2066
1240 2070
1240 2071
1240 2088
1240 2091
1240 2092
1240 2096
1240 2097
1240 2127
1240 2129
1240 2131
1240 2137
1240 2138
1240 2139
1240 2151
1240 2152
1240 2153
1240 2168
1240 2169
1240 2172
1240 2179
1240 2186
1240 2190
1240 2196
1240 2215
1240 2218
1240 2250
1240 2278
1240 2279
1240 2287
1240 2320
1240 2360
1240 2380
1240 2385
1240 2390
1240 2412
1240 2426
1240 2461
1240 2463
1240 2480
1240 2483
1240 2489
1240 2498
1240 2517
1240 2530
1240 2541
1240 2549
1240 2552
1240 2564
1240 2573
1240 2585
1240 2600
1240 2610
1240 2627
1240 2658
1240 2667
1240 2668
1240 2671
1240 2678
1240 2686
1240 2693
1240 2712
1240 2723
1240 2759
1240 2762
1240 2791
1240 2793
1240 2826
1240 2829
1240 2857
1240 2879
1240 2900
1240 2915
1240 2919
1240 2934
1240 2982
1240 3039
1240 3065
1240 3109
1240 3121
1240 3133
1240 3158
1240 3161
1240 3186
1240 3242
1240 3293
1240 3299
1240 3321
1240 3354
1240 3357
1240 3363
1240 3365
1240 3367
1240 3386
1240 3387
1240 3405
1240 3433
1240 3439
1240 3440
1240 3442
1240 3448
1240 3451
1240 3463
1240 3464
1240 3484
1240 3492
1240 3495
1240 3499
1240 3503
1240 3506
1240 3514
1240 3546
1240 3550
1240 3555
1240 3556
1240 3562
1240 3564
1240 3567
1240 3572
1240 3590
1240 3594
1240 3595
1240 3603
1240 3613
1240 3615
1240 3625
1240 3631
1240 3645
1240 3648
1240 3654
1240 3664
1240 3675
1240 3705
1240 3715
1240 3716
1240 3729
1240 3732
1240 3734
1240 3736
1240 3738
1240 3741
1240 3743
1240 3747
1240 3750
1240 3754
1240 3761
1240 3765
1240 3769
1240 3783
1240 3792
1240 3796
1240 3802
1240 3816
1240 3817
1240 3829
1240 3832
1240 3834
1240 3844
1240 3847
1240 3848
1240 3851
1240 3852
1240 3878
1240 3886
1240 3900
1240 3901
1240 3913
1240 3915
1240 3942
1240 3952
1240 3968
1240 4001
1240 4006
1240 4007
1240 4044
1240 4067
1240 4068
1240 4070
1240 4071
1240 4092
1240 4118
1240 4119
1240 4134
1240 4135
1240 4188
1240 4192
1240 4201
1240 4204
1240 4209
1240 4224
1240 4232
1240 4244
1240 4246
1240 4252
1240 4259
1240 4262
1240 4279
1240 4294
1240 4324
1240 4328
1240 4336
1240 4350
1240 4351
1240 4354
1240 4356
1240 4361
1240 4374
1240 4443
1240 4449
1240 4450
1240 4472
1240 4491
1240 4514
1240 4530
1240 4539
1240 4541
1240 4543
1240 4545
1240 4551
1240 4566
1240 4569
1240 4582
1240 4638
1240 4649
1240 4680
1240 4695
1240 4699
1240 4723
1240 4751
1240 4762
1240 4767
1240 4800
1240 4821
1240 4825
1240 4883
1240 4895
1240 4900
1240 4917
1240 4925
1240 4927
1240 4941
1240 4946
1240 4970
1240 4980
1240 4991
1240 5000
1240 5007
1240 5019
1240 5036
1240 5041
1240 5042
1240 5051
1240 5055
1240 5057
1240 5098
1240 5111
1240 5128
1240 5133
1240 5134
1240 5141
1240 5165
1240 5173
1240 5179
1240 5189
1240 5191
1240 5199
1240 5205
1240 5214
1240 5216
1240 5219
1240 5222
1240 5223
1240 5275
1240 5281
1240 5283
1240 5287
1240 5288
1240 5290
1240 5294
1240 5305
1240 5309
1240 5316
1240 5320
1240 5323
1240 5326
1240 5329
1240 5334
1240 5336
1240 5338
1240 5355
1240 5359
1240 5362
1240 5367
1240 5407
1240 5451
1240 5454
1240 5459
1240 5465
1240 5497
1240 5512
1240 5523
1240 5527
1240 5530
1240 5556
1240 5583
1240 5595
1240 5613
1240 5636
1240 5639
1240 5646
1240 5647
1240 5650
1240 5651
1240 5653
1240 5662
1240 5663
1240 5673
1240 5675
1240 5676
1240 5677
1240 5678
1240 5679
1240 5686
1240 5690
1240 5697
1240 5702
1240 5710
1240 5715
1240 5735
1240 5738
1240 5739
1240 5742
1240 5748
1240 5749
1240 5752
1240 5754
1240 5768
1240 5770
1240 5771
1240 5779
1240 5780
1240 5782
1240 5787
1240 5797
1240 5801
1240 5803
1240 5806
1240 5809
1240 5812
1240 5814
1240 5824
1240 5828
1240 5839
1240 5842
1240 5860
1240 5872
1240 5894
1240 5895
1240 5903
1240 5915
1240 5924
1240 5932
1240 5939
1240 5941
1240 5942
1240 5944
1240 5969
1240 5976
1240 5981
1240 5982
1240 5984
1240 5990
1240 5994
1240 6006
1240 6007
1240 6008
1240 6009
1240 6010
1240 6011
1240 6013
1240 6014
1240 6029
1240 6033
1240 6034
1240 6036
1240 6040
1240 6041
1240 6043
1240 6062
1240 6063
1240 6071
1240 6074
1240 6077
1240 6078
1240 6083
1240 6096
1240 6097
1240 6102
1240 6111
1240 6114
1240 6128
1240 6129
1240 6133
1240 6134
1240 6135
1240 6136
1240 6139
1240 6141
1240 6142
1240 6144
1240 6152
1240 6153
1240 6157
1240 6161
1240 6162
1240 6163
1240 6167
1240 6168
1240 6169
1240 6170
1240 6173
1240 6176
1240 6178
1240 6182
1240 6195
1240 6196
1240 6202
1240 6207
1240 6208
1240 6211
1240 6223
1240 6224
1240 6225
1240 6226
1240 6227
1240 6234
1240 6243
1240 6246
1240 6248
1240 6249
1240 6256
1240 6259
1240 6263
1240 6275
1240 6279
1240 6282
1240 6294
1240 6295
1240 6296
1240 6297
1240 6303
1240 6305
1240 6310
1240 6312
1240 6314
1240 6315
1240 6319
1240 6326
1240 6329
1240 6330
1240 6331
1240 6333
1240 6335
1240 6341
1240 6348
1240 6349
1240 6353
1240 6358
1240 6365
1240 6368
1240 6373
1240 6391
1240 6397
1240 6398
1240 6409
1240 6413
1240 6414
1240 6439
1240 6440
1240 6444
1240 6450
1240 6452
1240 6453
1240 6454
1240 6455
1240 6457
1240 6460
1240 6462
1240 6466
1240 6468
1241 4059
1242 2383
1242 2438
1242 2446
1242 2628
1242 2647
1242 2726
1242 2769
1242 3517
1242 3562
1242 5487
1244 1426
1244 3759
1245 2829
1245 2915
1245 3463
1245 3759
1245 4063
1245 4629
1245 4658
1245 4766
1245 4776
1245 4788
1245 5509
1245 5728
1245 6454
1245 6462
1246 1247
1246 1248
1246 1251
1246 1265
1246 1282
1246 1358
1246 1383
1246 1385
1246 1386
1246 1387
1246 1388
1246 1389
1246 1390
1246 1401
1246 1419
1246 1433
1246 1448
1246 1578
1246 2765
1246 3562
1246 3679
1246 3690
1246 3703
1246 3706
1246 3707
1246 3714
1246 3730
1246 3733
1246 3766
1246 3809
1246 3875
1246 3877
1246 3903
1246 3908
1246 3927
1246 3943
1246 3949
1246 3955
1246 3973
1246 3991
1246 3994
1246 3998
1246 4003
1246 4033
1246 4043
1246 4072
1246 4076
1246 4079
1246 4082
1246 4084
1246 4093
1246 4165
1246 4166
1246 4219
1246 4228
1246 4296
1246 4313
1246 4635
1246 4739
1246 4741
1246 4743
1246 4745
1246 4795
1246 4798
1246 4805
1246 4861
1246 5684
1246 5728
1249 5557
1250 3562
1251 1395
1252 3562
1253 4779
1254 2517
1254 4638
1256 4029
1256 4083
1257 3550
1258 1756
1258 1801
1258 1878
1258 1881
1258 2121
1258 2604
1258 2864
1258 3077
1258 4858
1258 5493
1259 3463
1259 4663
1259 6462
1260 1357
1260 3463
1260 4638
1260 4748
1262 4059
1262 4638
1263 4766
1264 5059
1266 4652
1267 3405
1268 2342
1268 2374
1268 2595
1268 2728
1268 2778
1268 3016
1268 3056
1268 3125
1268 3142
1268 3210
1268 3303
1268 3319
1268 3431
1268 3443
1268 3602
1268 4406
1268 4475
1268 4579
1268 4631
1268 4647
1268 4786
1268 4947
1268 5190
1268 5379
1269 1501
1269 1573
1269 2765
1270 4704
1271 1890
1271 2409
1271 2423
1271 2748
1271 2933
1271 2995
1271 3053
1271 3068
1271 3089
1271 3102
1271 3146
1271 3163
1271 3210
1271 3265
1271 3392
1271 3401
1271 3532
1271 3543
1271 3553
1271 4371
1271 4382
1271 4383
1271 4428
1271 4444
1271 4463
1271 4483
1271 4618
1271 4633
1271 4754
1271 4770
1271 4823
1271 4877
1271 4906
1271 4908
1271 4930
1271 4949
1271 4974
1271 4992
1271 5014
1271 5017
1271 5095
1271 5224
1271 5410
1271 5431
1271 5622
1272 4629
1272 6454
1273 1433
1273 2765
1274 1756
1274 1801
1274 1850
1274 2354
1274 2441
1274 2447
1274 2476
1274 2590
1274 2779
1274 2862
1274 2968
1274 2994
1274 3021
1274 3301
1274 3334
1274 3383
1274 3486
1274 3505
1274 3607
1274 4409
1274 4410
1274 4413
1274 4438
1274 4451
1274 4519
1274 4559
1274 4833
1274 4836
1274 4867
1274 4875
1274 5074
1274 5224
1274 5300
1274 5410
1274 5414
1274 5460
1274 5518
1274 5522
1274 5786
1275 2549
1275 5697
1276 1755
1276 2364
1276 2414
1276 2540
1276 2643
1276 2790
1276 2957
1276 3157
1276 3180
1276 3210
1276 3212
1276 3272
1276 3288
1276 4426
1276 4452
1276 5521
1278 1856
1278 4927
1279 4741
1280 1468
1280 2924
1280 5728
1281 1870
1281 3564
1281 3952
1281 6124
1281 6454
1282 1422
1282 4566
1282 4803
1283 3691
1283 4059
1283 4638
1284 2498
1284 2517
1284 2519
1285 1286
1285 1316
1285 1337
1285 1338
1285 1344
1285 1510
1285 1516
1285 2498
1285 2505
1285 2517
1285 2526
1285 3833
1285 3837
1285 3842
1285 3864
1285 4695
1285 4725
1285 4729
1286 1537
1286 2511
1287 4717
1288 3562
1290 2916
1290 6068
1291 1850
1291 1890
1291 2404
1291 2669
1291 3084
1291 3151
1291 3418
1291 4075
1291 4452
1291 4641
1291 4892
1291 5414
1291 5460
1291 5612
1291 5632
1291 6196
1293 3633
1293 6343
1294 1609
1294 3562
1297 1741
1297 2915
1298 1529
1299 4717
1300 1405
1300 1756
1300 1834
1300 1850
1300 2119
1300 2236
1300 2276
1300 2353
1300 2391
1300 2427
1300 2604
1300 2821
1300 2965
1300 3201
1300 3250
1300 3301
1300 3302
1300 3308
1300 3309
1300 4419
1300 5378
1300 5379
1300 5402
1300 5414
1300 5460
1300 5519
1300 5523
1300 5606
1301 2201
1302 1310
1302 3260
1303 2916
1304 1310
1305 2201
1306 1714
1306 2201
1307 1529
1307 3863
1307 4717
1308 1310
1309 1523
1309 2511
1309 2515
1309 2519
1309 2915
1309 3176
1309 3725
1309 3737
1309 4039
1309 4646
1309 4658
1309 4674
1309 4714
1309 4775
1309 5233
1309 5911
1309 6454
1309 6462
1310 1709
1310 1718
1310 2063
1310 2270
1310 4518
1311 1533
1311 2498
1311 4717
1313 1424
1313 3562
1314 6348
1315 2498
1315 2513
1315 2517
1315 3828
1315 3835
1315 3853
1315 4695
1315 4709
1315 4717
1316 2498
1316 2916
1319 1526
1319 2498
1319 4714
1320 2498
1320 2517
1321 2515
1321 2522
1322 1674
1323 1336
1323 1674
1323 3906
1324 1674
1325 1661
1325 1674
1325 1698
1325 1699
1325 2108
1325 2350
1325 4597
1325 4658
1325 5478
1326 1674
1326 1758
1326 1989
1326 3550
1326 5349
1326 6085
1327 1674
1327 1696
1327 1794
1327 2753
1327 3800
1327 5206
1328 1674
1328 3395
1328 4258
1328 6463
1329 1674
1330 1674
1331 1658
1331 1674
1331 3425
1332 1674
1333 1674
1333 2141
1333 3365
1334 1674
1335 1674
1335 3389
1335 3913
1336 1552
1336 2211
1336 3606
1336 5114
1336 5304
1336 6436
1338 2522
1339 3562
1339 4681
1339 4692
1339 6462
1340 2517
1341 6141
1343 5516
1344 1537
1344 2522
1345 2528
1346 2498
1348 1498
1348 4029
1349 3463
1350 1498
1350 3463
1350 4029
1350 4781
1351 3562
1352 1757
1354 4029
1354 4781
1355 5933
1356 4047
1356 4059
1356 4632
1357 3463
1357 4781
1358 3410
1358 3768
1358 4741
1358 6454
1359 1402
1359 1414
1359 1418
1359 1501
1359 3880
1359 3889
1359 4025
1359 4031
1359 4635
1360 4789
1361 6462
1362 5684
1363 2549
1363 2798
1363 2915
1363 6462
1364 3562
1367 6224
1368 2768
1368 5691
1369 3562
1370 3562
1370 3661
1371 2765
1373 3977
1374 3787
1375 3977
1375 4767
1376 3667
1377 3787
1377 4669
1377 4767
1378 3787
1379 3609
1379 3693
1379 3773
1379 4101
1379 4273
1380 3787
1380 4767
1381 4059
1381 4638
1383 4806
1384 3185
1384 3989
1384 4652
1384 6454
1391 5647
1393 4638
1394 4638
1395 1501
1395 2765
1396 2765
1397 6462
1398 4610
1399 1402
1399 2765
1400 1402
1400 1501
1402 1407
1402 1420
1402 1421
1402 1423
1402 1482
1402 1491
1402 1501
1402 1556
1402 1576
1402 1578
1402 2765
1402 2915
1402 3688
1402 3689
1402 3718
1402 3733
1402 3794
1402 3891
1402 3979
1402 4072
1402 4222
1402 4234
1402 4397
1402 4566
1402 4635
1402 4803
1402 6462
1404 1786
1404 3562
1405 4638
1406 5509
1406 6454
1407 2765
1409 2549
1410 2915
1411 3562
1412 4232
1414 1501
1414 4855
1415 2915
1415 3357
1415 3574
1415 6462
1416 2765
1418 2765
1422 1451
1422 3799
1424 1707
1424 1833
1424 2901
1424 2903
1424 3113
1424 3173
1424 3682
1424 3686
1424 3757
1424 3895
1424 4558
1424 4601
1424 5051
1424 5079
1424 5254
1424 5360
1424 5415
1424 5498
1424 5546
1424 5641
1424 5655
1424 5658
1424 5844
1424 6361
1425 2549
1426 3724
1426 3919
1426 3939
1426 5647
1426 5933
1428 2549
1428 3357
1428 6348
1429 4652
1432 3185
1432 4652
1433 1554
1433 3690
1433 3921
1433 3990
1433 4207
1433 4737
1434 3761
1434 4001
1435 6468
1436 3787
1436 4767
1437 2564
1437 4767
1438 1782
1438 3692
1439 3609
1439 3778
1439 4295
1440 2564
1440 4767
1441 5647
1441 6348
1442 4767
1443 3774
1443 4767
1444 2765
1445 2924
1445 3737
1445 4321
1445 4574
1445 4775
1446 5007
1446 5738
1447 2765
1450 4658
1455 4652
1458 2765
1458 4434
1458 6462
1464 6462
1468 4800
1469 5697
1470 4638
1471 2517
1471 4638
1479 6260
1480 4638
1482 2765
1484 1501
1484 2765
1485 4029
1487 3663
1488 3663
1488 4059
1491 1501
1491 2765
1494 3562
1494 6348
1496 4652
1497 5073
1498 1562
1501 1741
1501 3928
1501 3929
1501 3930
1501 4024
1501 4566
1501 4649
1501 4740
1501 4798
1501 4806
1501 5674
1501 5677
1502 3492
1502 4970
1503 4059
1507 1515
1507 2501
1507 2514
1507 3511
1507 3692
1507 3836
1507 4731
1507 5647
1507 5933
1509 2514
1509 2522
1511 4683
1512 2498
1512 2522
1513 2522
1515 2514
1515 2517
1516 1520
1516 2498
1517 2916
1518 2498
1518 2522
1518 2916
1518 4696
1519 2498
1519 2515
1520 2498
1521 2498
1521 4683
1521 4726
1523 2515
1523 5911
1524 6348
1525 2498
1525 4704
1527 2517
1529 2498
1529 2517
1529 4696
1530 3562
1533 2498
1535 4717
1536 5684
1537 2498
1538 4690
1538 4717
1540 4551
1541 4717
1541 4733
1542 2522
1542 3827
1543 2498
1544 4311
1544 4514
1545 1741
1546 4787
1547 4638
1548 3463
1548 5728
1549 2915
1550 1877
1551 2924
1552 4347
1552 5755
1552 6019
1553 2765
1553 5509
1555 2765
1556 2765
1557 1914
1559 2549
1559 3550
1559 6348
1560 1914
1563 1914
1565 1914
1566 4029
1566 4781
1567 2549
1567 6136
1568 2019
1568 2549
1569 2924
1569 4797
1570 1914
1571 4764
1572 4652
1573 2765
1574 2549
1581 1914
1583 2915
1584 3562
1585 2224
1585 4006
1586 3562
1587 5465
1588 2667
1590 1914
1591 1914
1592 5973
1593 2549
1594 3562
1594 6392
1595 1850
1595 2549
1595 2768
1595 4434
1596 6462
1597 6133
1598 6348
1600 4231
1600 6421
1606 2042
1606 5697
1606 6348
1608 2549
1609 3562
1610 2549
1610 6173
1612 3562
1613 5548
1614 3968
1614 4566
1616 5647
1616 6348
1617 2011
1618 2549
1618 6135
1619 5697
1620 6173
1621 1870
1621 3562
1621 5651
1623 3562
1624 1741
1625 5697
1625 6348
1627 2549
1629 2549
1629 3550
1630 3357
1631 3562
1631 6348
1632 5651
1633 3562
1634 2042
1634 2549
1634 3562
1634 4201
1634 6348
1635 3738
1636 4970
1637 2915
1637 6012
1639 2915
1640 2042
1641 3562
1644 5509
1645 6135
1646 3603
1647 3562
1647 4201
1647 6309
1647 6462
1648 4970
1648 6293
1648 6423
1648 6462
1649 6462
1652 3562
1654 2604
1654 2832
1654 2834
1654 2835
1654 2837
1654 2838
1654 2839
1654 2840
1654 2842
1654 2843
1654 2844
1654 2847
1654 2949
1654 3221
1654 3422
1654 4499
1654 5379
1654 5602
1655 6454
1655 6464
1657 6297
1658 3715
1659 2915
1662 1741
1662 5738
1663 1688
1664 1674
1665 5007
1666 1678
1666 2269
1667 1669
1667 1674
1667 1683
1667 5845
1668 1674
1668 2560
1668 3359
1669 1674
1669 1683
1669 2057
1669 2829
1669 5712
1669 5845
1669 5930
1670 2915
1671 1674
1671 1850
1671 2297
1672 6464
1673 1674
1673 5423
1674 1675
1674 1678
1674 1688
1674 1695
1674 2686
1674 3562
1674 3952
1675 2560
1676 1678
1677 3550
1677 4566
1678 1698
1679 6136
1680 3562
1681 2937
1681 3182
1681 4589
1681 6454
1682 4184
1685 5007
1686 2042
1687 2549
1690 3562
1692 3264
1692 3562
1692 4929
1693 2915
1694 5697
1695 5757
1696 3726
1699 2686
1699 5465
1702 2498
1702 4695
1702 6462
1707 2744
1708 2915
1708 3550
1708 4259
1708 6454
1711 2915
1712 5642
1713 3562
1713 4551
1713 5647
1715 2549
1716 3562
1717 2201
1718 2201
1718 2471
1718 2473
1718 3216
1718 3257
1720 2201
1721 2201
1722 2201
1723 3562
1724 2201
1725 6114
1726 2201
1727 3603
1728 5977
1729 6083
1730 3302
1731 2549
1732 3968
1732 4162
1732 5677
1732 6348
1733 5516
1735 3562
1736 2667
1737 5697
1739 3562
1740 1742
1741 1774
1741 1776
1741 1801
1741 1816
1741 1833
1741 1884
1741 1925
1741 1946
1741 1952
1741 1962
1741 2023
1741 2025
1741 2103
1741 2152
1741 2226
1741 2263
1741 2337
1741 2367
1741 2373
1741 2498
1741 2569
1741 2572
1741 2686
1741 2716
1741 2754
1741 2804
1741 2829
1741 2856
1741 2915
1741 2973
1741 3010
1741 3063
1741 3205
1741 3238
1741 3357
1741 3363
1741 3574
1741 3589
1741 3623
1741 3669
1741 3681
1741 3684
1741 3763
1741 3881
1741 3897
1741 4089
1741 4107
1741 4180
1741 4229
1741 4264
1741 4266
1741 4267
1741 4310
1741 4311
1741 4375
1741 4377
1741 4496
1741 4541
1741 4848
1741 4888
1741 4966
1741 5001
1741 5051
1741 5200
1741 5203
1741 5223
1741 5349
1741 5384
1741 5414
1741 5449
1741 5453
1741 5665
1741 5728
1741 5811
1741 5829
1741 5853
1741 5875
1741 5911
1741 6049
1741 6097
1741 6099
1741 6105
1741 6114
1741 6173
1741 6239
1741 6283
1741 6390
1741 6425
1741 6454
1742 2604
1742 3222
1742 3344
1742 4936
1743 4002
1744 2549
1744 3562
1746 6462
1747 2275
1747 2498
1747 2533
1747 2829
1747 2915
1747 3562
1748 2549
1748 3550
1752 5675
1753 6348
1754 4324
1756 1760
1756 1801
1756 1854
1756 1878
1756 1881
1756 1890
1756 1903
1756 2109
1756 2250
1756 2269
1756 2291
1756 2302
1756 2317
1756 2356
1756 2427
1756 2429
1756 2447
1756 2491
1756 2500
1756 2530
1756 2562
1756 2577
1756 2580
1756 2604
1756 2608
1756 2635
1756 2654
1756 2655
1756 2687
1756 2794
1756 2853
1756 2915
1756 2939
1756 2974
1756 2988
1756 3128
1756 3138
1756 3162
1756 3225
1756 3229
1756 3249
1756 3251
1756 3279
1756 3301
1756 3331
1756 3334
1756 3337
1756 3374
1756 3414
1756 4270
1756 4465
1756 4623
1756 4844
1756 4860
1756 4866
1756 4931
1756 5071
1756 5378
1756 5389
1756 5401
1756 5404
1756 5406
1756 5408
1756 5414
1756 5424
1756 5425
1756 5431
1756 5500
1756 5512
1756 5540
1756 5552
1756 5579
1756 5589
1756 5596
1756 5605
1756 5608
1756 5622
1756 5629
1756 5630
1756 5670
1756 6025
1756 6462
1757 4870
1759 3562
1760 2397
1760 2604
1760 3250
1760 5379
1760 5414
1760 5516
1760 5575
1760 5590
1760 5591
1761 4545
1761 4984
1763 3562
1763 6348
1767 3562
1768 2206
1768 3562
1768 5844
1768 6403
1770 2915
1770 3562
1771 3562
1772 3562
1773 2915
1773 3562
1775 5512
1777 1854
1777 1902
1778 6136
1779 2915
1779 3147
1779 3492
1779 4110
1780 3562
1780 3734
1781 6348
1783 6462
1784 3603
1785 3550
1785 5212
1785 5951
1785 6083
1785 6400
1786 1886
1786 2073
1786 2474
1786 2913
1786 3629
1786 3630
1786 3758
1786 3821
1786 4018
1786 4294
1786 5430
1786 5648
1786 5720
1786 6075
1786 6099
1786 6233
1788 6348
1793 2186
1795 3562
1796 3562
1797 1993
1797 3385
1798 6058
1799 2915
1799 3702
1800 6348
1801 1878
1801 1880
1801 1881
1801 1882
1801 2028
1801 2498
1801 2549
1801 2552
1801 2864
1801 3337
1801 3562
1801 3598
1801 4036
1801 5512
1801 5697
1806 6138
1807 3550
1807 3915
1809 5697
1810 2549
1811 6328
1812 5651
1812 6224
1813 3678
1813 5057
1814 3562
1814 6348
1819 4566
1820 6462
1821 2067
1821 2097
1822 2097
1823 2906
1825 4455
1826 2049
1826 2056
1826 6272
1828 4541
1830 2902
1832 6333
1834 2250
1834 2662
1834 2742
1834 2915
1834 3038
1834 3203
1834 3210
1834 3304
1834 3562
1834 3894
1834 4201
1834 5029
1834 5686
1834 5993
1835 2915
1836 2604
1836 3241
1837 2048
1837 2454
1837 2613
1837 3003
1837 3611
1837 4503
1837 4969
1838 2068
1838 6464
1839 3562
1840 6139
1841 3633
1842 3478
1845 2014
1847 3562
1849 4320
1850 2029
1850 2086
1850 2342
1850 2530
1850 2572
1850 2687
1850 2831
1850 2857
1850 2911
1850 3084
1850 3116
1850 3126
1850 3214
1850 3258
1850 3276
1850 3287
1850 3321
1850 3329
1850 3339
1850 3345
1850 3418
1850 3424
1850 3454
1850 3575
1850 3577
1850 4650
1850 4872
1850 4892
1850 4916
1850 4984
1850 5090
1850 5379
1850 5389
1850 5391
1850 5410
1850 5414
1850 5460
1850 5463
1850 5501
1850 5552
1850 5558
1850 5572
1850 5608
1850 5622
1850 5670
1850 6196
1851 2604
1851 6454
1852 3385
1853 3968
1853 6107
1853 6193
1854 1902
1854 2037
1854 2430
1854 2828
1854 2877
1854 3157
1856 2549
1856 4271
1856 5207
1856 5375
1856 5802
1856 6015
1857 3562
1858 6047
1859 2829
1859 2915
1859 3357
1859 3666
1859 3667
1859 3752
1859 4545
1859 4885
1859 4886
1859 4887
1859 5672
1859 5680
1859 5942
1859 5943
1860 3562
1863 2065
1863 3357
1863 5749
1864 2915
1865 3550
1866 3562
1867 2549
1868 3562
1870 2031
1870 2070
1870 2829
1870 2915
1870 3063
1870 3357
1870 3492
1870 4333
1870 5600
1870 5971
1870 6282
1870 6456
1873 2829
1874 5887
1874 6081
1876 2496
1877 2028
1877 2066
1877 2074
1877 4001
1877 6307
1878 2604
1879 6454
1881 1883
1881 2604
1884 2915
1885 4514
1888 2368
1888 2604
1888 2620
1888 2785
1888 3100
1888 3194
1889 1891
1889 3334
1890 2918
1890 3301
1890 3321
1890 5552
1891 2090
1891 2274
1891 2733
1891 2764
1891 3159
1891 3178
1891 3280
1891 3334
1891 3388
1891 3516
1891 3918
1891 5414
1891 5507
1893 3562
1896 3550
1896 6428
1899 5697
1900 2947
1900 4415
1900 5005
1900 5163
1900 5379
1902 2437
1902 3164
1902 3195
1902 3291
1902 4536
1902 4911
1904 3414
1904 5167
1906 6023
1907 3562
1909 6182
1912 2042
1912 5677
1913 3550
1913 3968
1914 1985
1914 2633
1914 2747
1914 5257
1914 5840
1916 3790
1917 3562
1917 5305
1917 5883
1917 6056
1918 5697
1919 6468
1920 4201
1920 6348
1921 4231
1922 3562
1922 6348
1923 2608
1924 3550
1925 5684
1927 3562
1929 4184
1930 3562
1931 2757
1931 3157
1931 3252
1931 3272
1931 5517
1932 2549
1932 3832
1933 3550
1935 2498
1935 2829
1935 2915
1935 3357
1935 3562
1935 4970
1935 5809
1935 5912
1935 5967
1935 6083
1935 6454
1936 2201
1937 2201
1938 2201
1939 2201
1940 2201
1941 2201
1942 4437
1942 6462
1943 2201
1944 3492
1945 3562
1946 2915
1946 3357
1948 3550
1948 6198
1949 3562
1950 2549
1951 2552
1955 5007
1956 2013
1956 2548
1956 2631
1956 3157
1956 3220
1956 3272
1956 3315
1956 3347
1957 6333
1958 2549
1959 3550
1959 5697
1961 3562
1962 5677
1964 4001
1964 4005
1965 5647
1966 2915
1968 2639
1968 3472
1969 3562
1970 4001
1970 5723
1970 6052
1972 3492
1973 2549
1974 3562
1976 3562
1977 2066
1978 3968
1978 6133
1980 2768
1980 3673
1980 5880
1980 6464
1981 4001
1981 4996
1981 5948
1981 6430
1982 4001
1983 5697
1983 5716
1983 6296
1984 3968
1984 6462
1987 4184
1988 2083
1988 5188
1988 5204
1989 6260
1991 4927
1992 3562
1993 2799
1993 3550
1993 3968
1993 4970
1993 6133
1993 6270
1993 6321
1994 6454
1996 3562
1996 6173
1997 3562
1999 5007
2003 3357
2005 3562
2005 3858
2005 5647
2006 2549
2006 6133
2007 2494
2008 2342
2008 3301
2009 4638
2010 3562
2011 2318
2011 5247
2011 5934
2013 3341
2014 3952
2015 3952
2016 6260
2016 6348
2017 2829
2018 3385
2023 3357
2027 3562
2028 4006
2028 5509
2030 4231
2031 3562
2032 2915
2034 4970
2034 6348
2038 3550
2039 3562
2039 4201
2039 6198
2040 2549
2040 3562
2040 5697
2041 6401
2042 2184
2042 2498
2042 2829
2042 2915
2042 3111
2042 3562
2042 3790
2042 3857
2042 5150
2042 5152
2042 5176
2042 5212
2042 5329
2042 5369
2042 5459
2042 5700
2042 5750
2042 5922
2042 6087
2042 6338
2042 6369
2042 6406
2042 6454
2042 6473
2043 4775
2043 5728
2043 6454
2045 6348
2046 5079
2049 2056
2050 2915
2055 2915
2056 5254
2059 3092
2059 3562
2059 3797
2059 3818
2059 3901
2059 4260
2059 4501
2059 5364
2059 5646
2060 3562
2061 2201
2062 5186
2064 5674
2065 3562
2065 5377
2073 3562
2073 3932
2074 6454
2075 3562
2076 3562
2077 3357
2080 3465
2080 3997
2081 3465
2083 5204
2084 4927
2085 3562
2086 2090
2086 2857
2087 2515
2088 2089
2088 2915
2088 3562
2088 5762
2088 6454
2090 3117
2090 3216
2090 3302
2090 3321
2090 5467
2092 3562
2093 3562
2094 3562
2095 3562
2095 4449
2095 6348
2097 2167
2097 2549
2097 3671
2098 3562
2100 3968
2101 2549
2104 2768
2108 3157
2108 3272
2109 5392
2110 3293
2111 3290
2111 3616
2111 4504
2111 4549
2111 5379
2111 5414
2111 5460
2113 5652
2114 3357
2116 5714
2118 3550
2119 2286
2119 2391
2119 2539
2119 2586
2119 2623
2119 2845
2119 2953
2119 3026
2119 3317
2119 3396
2119 4515
2119 5093
2119 5387
2119 5496
2119 5554
2119 5569
2119 5574
2119 5593
2120 2250
2120 2444
2120 3294
2122 6136
2124 3562
2125 3562
2125 6300
2126 2549
2126 3550
2126 4201
2128 3952
2129 6177
2130 3562
2130 5007
2132 3258
2134 2915
2135 5379
2135 5410
2136 3287
2141 2686
2142 3952
2143 3952
2144 3952
2145 3952
2147 2224
2147 6454
2148 3550
2148 3562
2149 2684
2149 2849
2151 5183
2151 5674
2153 5255
2154 6462
2155 5697
2156 2549
2156 3562
2157 6189
2158 6083
2160 3494
2161 3562
2162 6328
2162 6402
2166 5714
2168 3562
2169 3562
2172 2915
2172 3357
2172 3562
2172 5674
2176 4231
2177 6260
2178 3133
2178 3562
2178 6210
2178 6454
2180 2199
2182 5132
2183 5007
2183 5738
2184 6348
2185 3562
2186 3485
2186 6028
2186 6333
2186 6459
2187 3562
2188 3562
2189 6114
2192 4927
2193 6348
2194 2915
2195 2768
2195 3346
2195 5148
2195 6454
2196 3562
2197 6076
2200 5512
2201 2223
2201 2237
2201 2238
2201 2260
2201 2419
2201 2458
2201 2478
2201 2479
2201 3157
2201 5512
2202 2549
2202 3738
2203 3832
2203 6396
2204 4231
2205 3562
2207 6348
2208 4324
2209 2549
2212 2321
2212 2712
2212 2829
2212 3492
2213 6348
2214 5674
2216 3357
2217 6348
2221 2549
2222 2549
2224 4201
2227 2549
2229 2549
2229 6262
2230 3255
2230 3550
2232 2589
2232 5378
2233 2875
2234 2476
2234 3061
2234 3089
2234 3138
2234 3301
2234 3368
2234 3532
2234 4483
2234 4614
2234 4911
2234 4979
2234 4981
2234 5379
2234 5404
2234 5410
2235 3375
2235 6421
2236 5414
2241 3305
2243 2681
2243 2729
2244 3357
2244 6303
2245 2683
2246 2589
2246 4592
2247 5378
2248 2714
2248 5540
2249 3334
2249 5414
2250 2309
2250 3334
2250 3545
2250 3562
2250 5414
2250 5460
2251 5584
2252 2383
2252 6421
2253 2875
2253 5379
2254 2443
2254 3550
2254 5416
2255 2687
2255 3334
2255 5391
2256 3353
2256 4616
2258 2404
2261 2422
2261 2894
2261 3334
2261 3357
2261 3374
2261 3478
2261 4577
2261 4578
2261 4951
2261 5137
2261 5155
2261 5379
2261 5389
2261 5410
2261 5414
2261 5460
2261 6454
2265 3296
2265 3303
2266 2614
2267 4389
2268 3138
2269 2342
2269 2355
2269 2377
2269 2410
2269 2558
2269 3141
2269 3318
2269 3357
2269 3374
2269 4400
2269 5379
2269 5401
2269 5631
2271 2407
2273 3304
2277 3562
2278 5509
2279 3562
2280 3562
2281 2549
2282 3304
2284 3117
2285 3328
2286 2391
2287 2549
2287 2915
2287 5677
2287 6348
2290 3301
2290 4853
2291 2999
2291 4653
2291 5557
2291 5618
2292 3832
2293 5409
2294 2391
2295 2456
2295 2857
2295 5379
2296 2592
2296 3138
2296 3334
2296 3374
2296 5414
2298 5409
2299 5550
2300 3216
2300 3412
2303 3255
2304 3301
2304 5414
2304 5460
2305 2569
2305 5407
2306 3385
2306 3562
2307 2946
2307 2996
2307 3062
2307 5066
2308 2391
2308 4688
2309 5626
2310 3303
2312 2368
2312 2620
2312 5618
2313 3562
2314 4001
2315 3305
2316 5379
2317 5460
2317 6454
2319 2918
2319 2922
2322 4706
2323 5409
2324 3550
2325 3329
2325 4001
2326 2454
2326 3304
2326 5399
2328 3562
2329 2784
2329 4001
2330 3328
2331 2620
2331 5618
2333 5121
2334 3138
2334 3297
2334 4893
2334 5414
2336 3317
2337 2915
2338 3270
2338 6421
2339 3223
2340 2823
2341 3305
2342 2343
2342 2364
2342 2456
2342 2657
2342 2658
2342 2777
2342 2944
2342 2985
2342 3000
2342 3016
2342 3166
2342 3191
2342 3192
2342 3210
2342 3516
2342 3535
2342 4419
2342 4420
2342 4425
2342 4442
2342 4619
2342 5006
2342 5058
2342 5201
2342 5379
2342 5411
2342 5460
2342 5618
2342 5786
2342 6454
2343 5410
2344 2630
2344 3098
2346 5509
2347 6348
2348 3321
2349 3306
2349 3374
2352 2500
2353 2424
2353 2557
2353 2665
2353 4563
2353 4937
2354 2425
2354 3138
2354 5017
2356 3353
2356 5379
2357 2404
2357 3216
2358 2383
2359 5378
2362 5516
2363 3562
2364 3162
2364 3332
2364 5379
2366 3223
2367 3562
2369 5569
2370 6077
2370 6260
2371 2620
2371 4918
2372 3138
2372 3301
2372 4430
2372 5379
2374 3493
2374 5379
2376 2579
2376 2855
2377 2823
2377 5401
2378 2430
2378 2500
2378 3162
2380 2983
2380 3668
2380 6437
2381 5516
2382 3129
2382 3137
2382 5647
2383 2628
2383 2717
2383 3175
2383 3187
2383 4001
2384 5569
2385 4551
2386 4001
2391 2394
2391 2399
2391 2408
2391 2421
2391 2432
2391 2445
2391 2575
2391 2579
2391 2692
2391 2706
2391 2725
2391 2737
2391 2763
2391 2781
2391 2845
2391 2874
2391 2930
2391 2945
2391 2950
2391 2991
2391 3011
2391 3029
2391 3217
2391 3232
2391 3236
2391 3254
2391 3317
2391 3390
2391 3396
2391 3456
2391 3562
2391 4424
2391 4429
2391 4515
2391 4605
2391 4607
2391 5002
2391 5022
2391 5024
2391 5047
2391 5168
2391 5564
2391 6454
2393 5651
2394 3217
2395 6454
2396 2681
2397 2763
2397 2956
2398 4385
2400 5431
2401 3385
2402 5378
2403 3301
2403 4201
2403 5379
2404 2803
2404 2805
2404 2808
2404 3343
2404 3977
2405 4231
2406 4396
2407 2561
2407 4396
2408 3179
2408 3217
2408 6454
2409 3478
2410 2918
2411 3216
2411 6421
2413 4231
2414 2994
2415 5379
2416 4231
2417 3304
2418 3550
2418 3968
2420 3317
2421 2579
2421 3217
2422 3126
2422 4650
2423 3258
2424 5618
2425 2517
2426 6454
2429 2968
2429 3165
2429 3368
2429 3497
2429 5580
2431 3562
2431 5334
2432 2855
2432 3217
2433 4514
2433 6392
2434 2714
2435 2797
2436 3472
2436 5800
2439 5680
2440 2488
2440 3009
2440 3070
2440 4859
2440 5066
2440 5366
2440 6421
2441 3138
2442 2974
2443 2855
2444 3294
2445 2579
2445 5064
2447 3301
2447 4469
2447 5410
2448 2915
2449 3216
2450 2664
2450 3562
2451 3329
2452 2855
2454 3022
2454 5379
2456 2543
2456 4001
2456 4603
2456 4755
2456 4828
2456 5460
2457 3562
2459 3304
2460 3317
2461 6348
2462 5569
2463 5007
2464 3162
2464 5410
2466 5101
2466 5800
2466 6421
2467 2768
2469 4006
2469 6454
2472 5512
2474 4732
2480 3562
2481 2549
2481 5390
2482 3138
2482 3199
2482 5460
2483 2549
2484 2485
2484 3472
2485 2917
2485 3237
2485 6421
2487 2918
2487 5379
2489 3562
2490 6173
2492 2857
2493 5390
2494 5151
2494 5218
2494 5291
2494 5766
2496 2497
2496 2702
2496 2915
2498 2499
2498 2501
2498 2511
2498 2514
2498 2515
2498 2516
2498 2517
2498 2519
2498 2520
2498 2522
2498 2527
2498 2528
2498 2549
2498 2552
2498 2555
2498 2688
2498 2829
2498 2908
2498 2915
2498 2916
2498 3258
2498 3301
2498 3321
2498 3357
2498 3550
2498 3562
2498 3564
2498 3848
2498 3854
2498 3855
2498 3933
2498 3952
2498 3968
2498 4001
2498 4007
2498 4184
2498 4198
2498 4437
2498 4460
2498 4514
2498 4528
2498 4566
2498 4673
2498 4674
2498 4678
2498 4679
2498 4681
2498 4682
2498 4683
2498 4689
2498 4690
2498 4692
2498 4693
2498 4703
2498 4705
2498 4714
2498 4717
2498 4724
2498 4726
2498 4733
2498 4775
2498 4778
2498 5001
2498 5463
2498 5670
2498 5697
2498 6067
2498 6124
2498 6396
2498 6462
2499 2908
2500 2654
2500 2694
2500 2736
2500 3249
2500 3304
2500 3470
2500 3560
2500 4901
2501 2502
2501 2507
2501 2509
2501 2512
2501 2514
2501 2517
2501 2521
2501 2908
2501 3860
2501 4460
2501 4718
2501 4731
2502 2908
2504 2908
2505 2908
2505 4731
2506 2908
2506 3461
2507 2524
2507 2908
2508 4514
2508 6392
2509 2908
2510 2575
2510 2855
2510 3576
2511 3842
2511 4337
2511 4695
2511 4723
2513 4726
2514 2517
2514 2523
2514 3489
2514 3511
2514 3836
2514 4730
2515 2517
2515 3850
2515 4685
2515 4695
2515 4708
2515 4711
2515 5911
2517 2519
2517 2520
2517 2522
2517 2525
2517 2528
2517 2829
2517 2915
2517 2916
2517 3140
2517 3562
2517 3850
2517 3862
2517 4021
2517 4460
2517 4674
2517 4676
2517 4679
2517 4682
2517 4686
2517 4694
2517 4703
2517 4704
2517 4705
2517 4717
2517 4726
2517 4733
2517 4756
2517 4759
2517 4762
2517 4778
2517 5251
2517 6454
2518 3303
2519 4690
2519 4695
2520 3862
2520 4678
2521 2908
2522 2555
2522 3830
2522 3837
2522 3850
2522 3867
2522 4676
2522 4694
2522 4703
2522 4710
2522 4717
2522 4725
2525 2555
2528 4775
2529 2583
2530 3968
2530 5418
2530 5429
2530 5460
2530 5565
2530 6462
2531 2855
2531 4638
2532 2915
2534 3225
2534 6421
2535 3550
2536 5323
2537 3164
2537 3291
2537 5157
2537 6454
2538 3341
2538 5484
2540 4383
2541 6326
2542 6454
2544 5401
2545 2697
2545 5401
2546 6421
2547 5409
2549 2566
2549 2650
2549 2745
2549 2751
2549 2798
2549 2810
2549 2829
2549 2846
2549 2857
2549 2861
2549 2879
2549 2880
2549 2898
2549 2915
2549 3055
2549 3092
2549 3105
2549 3145
2549 3200
2549 3237
2549 3357
2549 3416
2549 3458
2549 3557
2549 3562
2549 3621
2549 3636
2549 3708
2549 3709
2549 3716
2549 3758
2549 3800
2549 3874
2549 3964
2549 3987
2549 4011
2549 4145
2549 4191
2549 4199
2549 4203
2549 4221
2549 4241
2549 4307
2549 4316
2549 4324
2549 4356
2549 4535
2549 4553
2549 4565
2549 4570
2549 4626
2549 4912
2549 4959
2549 5050
2549 5068
2549 5244
2549 5274
2549 5283
2549 5290
2549 5303
2549 5317
2549 5319
2549 5352
2549 5363
2549 5525
2549 5527
2549 5529
2549 5635
2549 5644
2549 5645
2549 5652
2549 5738
2549 5780
2549 5790
2549 5796
2549 5830
2549 5837
2549 5865
2549 5881
2549 5905
2549 5909
2549 5913
2549 5932
2549 5945
2549 5950
2549 5971
2549 5985
2549 6006
2549 6007
2549 6008
2549 6009
2549 6010
2549 6011
2549 6012
2549 6035
2549 6060
2549 6062
2549 6078
2549 6096
2549 6110
2549 6129
2549 6130
2549 6131
2549 6156
2549 6182
2549 6191
2549 6220
2549 6224
2549 6230
2549 6269
2549 6279
2549 6282
2549 6286
2549 6317
2549 6336
2549 6341
2549 6344
2549 6410
2549 6422
2549 6433
2549 6435
2549 6448
2549 6454
2549 6469
2551 5674
2552 2751
2552 2829
2552 2915
2552 3562
2552 4156
2552 4317
2552 4527
2552 5248
2552 5297
2552 5572
2552 5808
2552 5832
2552 5918
2552 5945
2552 6045
2552 6054
2552 6200
2554 3448
2554 3507
2555 4059
2556 2809
2556 2861
2557 5618
2558 6454
2559 3562
2562 3562
2563 4184
2564 3693
2564 3696
2564 3777
2564 3778
2564 3779
2564 3814
2564 3963
2564 3966
2564 3972
2564 4010
2564 4105
2564 4186
2564 4190
2564 4288
2564 4290
2564 4666
2564 6454
2568 6421
2569 2915
2569 3357
2569 3968
2569 4160
2569 4587
2569 6159
2570 6454
2571 5552
2573 3391
2574 3138
2574 5379
2574 5410
2574 5431
2575 2740
2575 4432
2575 4842
2575 5018
2575 5524
2575 6454
2576 3562
2577 2836
2577 2933
2577 4907
2577 5401
2577 5405
2579 2591
2579 2636
2579 2788
2579 2896
2579 2953
2579 3217
2579 3219
2579 3562
2579 4922
2579 5538
2580 3149
2580 3421
2581 2915
2581 5360
2582 2823
2582 3305
2583 3138
2583 3304
2584 5509
2585 4566
2587 3337
2588 2896
2589 2752
2589 4758
2589 5337
2589 5378
2590 5379
2592 3334
2593 2915
2593 6368
2596 3968
2597 5378
2597 5523
2599 3472
2602 3555
2602 4182
2603 3157
2603 3272
2604 2841
2604 3157
2604 3256
2604 5378
2604 5379
2604 5414
2604 6454
2605 3603
2606 5379
2607 2918
2607 3216
2608 3563
2609 2994
2610 6454
2611 5604
2612 3138
2612 3157
2612 3272
2612 3601
2612 5414
2615 5378
2615 6421
2617 2855
2619 3550
2619 3968
2619 6135
2620 2816
2620 3100
2620 3157
2620 3194
2620 3272
2620 4421
2620 4563
2620 5551
2620 5557
2620 5618
2621 3742
2621 5714
2622 3385
2624 3237
2624 3472
2626 2974
2627 3562
2628 5509
2629 5568
2629 5569
2631 5562
2635 3301
2636 2821
2637 4857
2638 5415
2639 3237
2639 6421
2644 2684
2645 3258
2645 5431
2646 5697
2647 5409
2650 6468
2651 3562
2652 2653
2653 2660
2653 6464
2655 3273
2656 3306
2656 5379
2656 5595
2658 6454
2659 2996
2659 5409
2664 6421
2666 3341
2667 3378
2667 3562
2668 3378
2668 4064
2668 4169
2669 4933
2670 5406
2671 3562
2671 4904
2671 6048
2673 4514
2673 6460
2674 2687
2674 5487
2675 3562
2676 5379
2677 5697
2677 5749
2679 3258
2680 3385
2681 3095
2681 3104
2681 4533
2681 5126
2681 6454
2682 4231
2683 3138
2683 3258
2683 3329
2684 2957
2684 3011
2684 3373
2684 5388
2684 5569
2685 5595
2686 2687
2686 2688
2686 2689
2686 2829
2686 2915
2686 3081
2686 3562
2686 5456
2686 5674
2686 5675
2686 5676
2686 5677
2686 5678
2686 5679
2686 5680
2686 5681
2686 5682
2686 5843
2686 6454
2687 2771
2687 2822
2687 2979
2687 3119
2687 3301
2687 3333
2687 3334
2687 3340
2687 4398
2687 4470
2687 4547
2687 4891
2687 4945
2687 5410
2687 5426
2687 5436
2687 5460
2688 4065
2688 4663
2688 4673
2690 6421
2691 6173
2695 3258
2695 5431
2696 3968
2696 6135
2698 4756
2699 2915
2699 6123
2700 2786
2700 3030
2700 3512
2701 3028
2705 6133
2707 3982
2707 4081
2707 4638
2708 3562
2709 3478
2710 3217
2711 3341
2711 5484
2712 2940
2719 3258
2720 3562
2721 5334
2722 5873
2723 3562
2724 5484
2725 3217
2726 5409
2727 3138
2727 3334
2727 4477
2727 5460
2727 5497
2728 3303
2729 2907
2729 2943
2729 3050
2729 3071
2729 3095
2729 3169
2729 3468
2729 3536
2729 3562
2729 4001
2729 4149
2729 4521
2729 4707
2729 4713
2729 4790
2729 4829
2729 4917
2729 4919
2729 4986
2729 6454
2730 5604
2731 3258
2731 5460
2731 6462
2733 3574
2735 3550
2736 4905
2738 3321
2738 4001
2738 5408
2738 5491
2738 5589
2738 5611
2739 2855
2739 3217
2741 2915
2743 2823
2744 3464
2746 5143
2748 3258
2749 5697
2749 6447
2753 3357
2753 6182
2755 3258
2755 5379
2755 5460
2756 3334
2756 5414
2758 5410
2759 3550
2760 5379
2761 2857
2761 5379
2762 3562
2763 2855
2763 3215
2763 3313
2765 2824
2765 3410
2765 3680
2765 3685
2765 3690
2765 3711
2765 3713
2765 3733
2765 3739
2765 3768
2765 3786
2765 3793
2765 3921
2765 3990
2765 4020
2765 4115
2765 4302
2765 4306
2765 4740
2765 4741
2765 4798
2765 4803
2765 4806
2765 4855
2766 5409
2767 3115
2767 3217
2768 3462
2768 3673
2768 4173
2768 4293
2768 5011
2768 5880
2768 6184
2768 6242
2769 5409
2770 3562
2772 6250
2773 4638
2774 2872
2774 3374
2774 5560
2775 3268
2775 5569
2776 3337
2779 2951
2779 3079
2779 5096
2782 3968
2782 6135
2783 2915
2787 2857
2789 6065
2790 3138
2790 3162
2790 3321
2791 6454
2794 5557
2795 5409
2796 4092
2799 6133
2800 3138
2800 5431
2801 3258
2802 3293
2802 4838
2802 5014
2802 5379
2802 5410
2803 2805
2803 3334
2805 2808
2805 3343
2805 5379
2806 3562
2807 4231
2808 5379
2808 5410
2809 2861
2809 2966
2809 3025
2809 3227
2809 3244
2809 3561
2809 3562
2809 4402
2809 4461
2809 5401
2809 6454
2810 3562
2811 3304
2812 3303
2814 3550
2814 4566
2814 6348
2815 5569
2816 3100
2816 5618
2818 6136
2819 3345
2819 5460
2821 2886
2821 4411
2821 4842
2821 4922
2822 3304
2823 3534
2823 4691
2824 4737
2825 4006
2825 6454
2827 5670
2829 2915
2829 2918
2829 3067
2829 3258
2829 3301
2829 3321
2829 3357
2829 3408
2829 3492
2829 3550
2829 3558
2829 3562
2829 3564
2829 3721
2829 3787
2829 3790
2829 3841
2829 3848
2829 3857
2829 3915
2829 3952
2829 3968
2829 3977
2829 4001
2829 4007
2829 4184
2829 4201
2829 4314
2829 4324
2829 4437
2829 4514
2829 4528
2829 4541
2829 4545
2829 4551
2829 4556
2829 4566
2829 4638
2829 4695
2829 4769
2829 4909
2829 5001
2829 5007
2829 5098
2829 5131
2829 5414
2829 5463
2829 5497
2829 5512
2829 5647
2829 5651
2829 5670
2829 5674
2829 5694
2829 5697
2829 5706
2829 5727
2829 5728
2829 5757
2829 6067
2829 6080
2829 6083
2829 6114
2829 6124
2829 6173
2829 6194
2829 6201
2829 6246
2829 6260
2829 6262
2829 6346
2829 6366
2829 6369
2829 6396
2829 6403
2829 6406
2829 6426
2829 6454
2829 6462
2829 6468
2833 3070
2836 3301
2840 3197
2848 2965
2849 3268
2849 5569
2850 3216
2850 3260
2851 3562
2852 3562
2853 3272
2854 5516
2854 5575
2855 2945
2855 3029
2855 3098
2855 3217
2855 3581
2855 4001
2855 4688
2855 4799
2855 5024
2855 5047
2855 5213
2855 6454
2856 4296
2856 5401
2857 2859
2857 2871
2857 2911
2857 2944
2857 3374
2857 3424
2857 3562
2857 4514
2857 4984
2857 5379
2857 5401
2857 5414
2857 5460
2857 5632
2857 5714
2858 2859
2858 3562
2858 5520
2860 3562
2861 3027
2861 3469
2861 4819
2861 4899
2861 5517
2863 3562
2864 5414
2864 5460
2865 5569
2866 3302
2867 2891
2867 2895
2867 6421
2869 2872
2869 3478
2870 3070
2870 3520
2871 5608
2872 2993
2872 3177
2872 3552
2872 4486
2872 4620
2872 4754
2872 4880
2872 5379
2872 5460
2873 2915
2873 4201
2873 4927
2873 6462
2874 4727
2875 2887
2875 4001
2875 5379
2875 5466
2875 5570
2876 5569
2878 3262
2879 3562
2879 6173
2881 5390
2881 5484
2882 3158
2885 5409
2890 3472
2890 5378
2890 6421
2892 3472
2893 3154
2893 5009
2893 5078
2894 3968
2894 5379
2894 5460
2895 3472
2896 5569
2897 3217
2899 3550
2899 5675
2900 3562
2900 5651
2900 5868
2901 4212
2901 5697
2902 5272
2906 2915
2906 4179
2906 5284
2906 5974
2906 6188
2906 6454
2908 3157
2908 4731
2908 6454
2909 3341
2909 5390
2910 3062
2910 3070
2910 3086
2910 3246
2910 4436
2910 4884
2910 6421
2912 3562
2913 2915
2915 2918
2915 3055
2915 3066
2915 3067
2915 3097
2915 3131
2915 3255
2915 3258
2915 3321
2915 3348
2915 3357
2915 3358
2915 3385
2915 3397
2915 3408
2915 3492
2915 3550
2915 3558
2915 3562
2915 3564
2915 3583
2915 3585
2915 3617
2915 3649
2915 3651
2915 3657
2915 3678
2915 3702
2915 3721
2915 3728
2915 3756
2915 3774
2915 3784
2915 3787
2915 3808
2915 3820
2915 3823
2915 3839
2915 3866
2915 3868
2915 3915
2915 3933
2915 3934
2915 3947
2915 3952
2915 3968
2915 3977
2915 4001
2915 4007
2915 4070
2915 4089
2915 4121
2915 4122
2915 4135
2915 4137
2915 4181
2915 4184
2915 4201
2915 4208
2915 4217
2915 4223
2915 4259
2915 4307
2915 4312
2915 4339
2915 4356
2915 4408
2915 4437
2915 4479
2915 4497
2915 4514
2915 4528
2915 4541
2915 4545
2915 4566
2915 4596
2915 4695
2915 4913
2915 4970
2915 5001
2915 5053
2915 5082
2915 5084
2915 5090
2915 5099
2915 5146
2915 5161
2915 5166
2915 5252
2915 5258
2915 5359
2915 5391
2915 5407
2915 5410
2915 5414
2915 5432
2915 5450
2915 5463
2915 5465
2915 5492
2915 5497
2915 5503
2915 5512
2915 5543
2915 5577
2915 5638
2915 5651
2915 5670
2915 5697
2915 5733
2915 5754
2915 5799
2915 5850
2915 5875
2915 5879
2915 5881
2915 5897
2915 5899
2915 5900
2915 5902
2915 5919
2915 5932
2915 5983
2915 6017
2915 6057
2915 6067
2915 6080
2915 6083
2915 6100
2915 6109
2915 6114
2915 6154
2915 6173
2915 6179
2915 6194
2915 6236
2915 6249
2915 6253
2915 6260
2915 6262
2915 6321
2915 6327
2915 6332
2915 6342
2915 6345
2915 6346
2915 6359
2915 6366
2915 6396
2915 6403
2915 6425
2915 6428
2915 6454
2915 6462
2915 6468
2916 3867
2916 4681
2916 4710
2916 4729
2916 4734
2916 5728
2918 2947
2918 3078
2918 3101
2918 3122
2918 3374
2918 3437
2918 3526
2918 3548
2918 4415
2918 4957
2918 5005
2918 5118
2918 5163
2918 5171
2918 5379
2918 5414
2918 5437
2918 5460
2918 5512
2919 3562
2920 3303
2921 3216
2921 3260
2922 3375
2923 3832
2924 3879
2924 3946
2924 3948
2924 3959
2924 4399
2924 4435
2924 4742
2924 4751
2924 4801
2924 4856
2924 6462
2925 4315
2925 5110
2927 3304
2928 5569
2929 3301
2929 5410
2932 4231
2934 4505
2934 5290
2934 5364
2935 3251
2935 3304
2936 3301
2936 3334
2937 3340
2938 5410
2941 3024
2941 3054
2941 3374
2941 5379
2942 6468
2944 3170
2944 3374
2944 3608
2944 4482
2944 5032
2944 5460
2946 3070
2952 4591
2954 3317
2955 3270
2957 3584
2957 4401
2958 5608
2961 3562
2962 3353
2962 3445
2962 4439
2962 4865
2962 5379
2962 5410
2963 5409
2964 3258
2964 5540
2965 4831
2965 4857
2965 5523
2965 6454
2967 4315
2968 3258
2968 3539
2969 3562
2970 6392
2971 5792
2972 6421
2974 4560
2974 5552
2976 4514
2978 3472
2979 6421
2980 3562
2980 4970
2981 3260
2982 3185
2982 6454
2984 3028
2984 5511
2985 3122
2985 3306
2985 3374
2985 5379
2985 5411
2985 5595
2986 3230
2986 5379
2986 5460
2986 5993
2986 6133
2987 5557
2989 3255
2989 4385
2990 4201
2990 6260
2993 3258
2994 3021
2994 3110
2994 3374
2994 3612
2994 5311
2994 5410
2995 3258
2996 3559
2996 5261
2996 5299
2996 5366
2996 5552
2997 5565
2998 3357
3000 3216
3000 3260
3003 3304
3004 4551
3005 6348
3007 3234
3010 5697
3011 4910
3011 5468
3014 3255
3018 3832
3018 6348
3019 4970
3019 5493
3020 5674
3021 3301
3023 3270
3024 3258
3027 3244
3028 3165
3037 3260
3040 3216
3040 3260
3040 3412
3041 3334
3041 5401
3042 4927
3043 5651
3044 3162
3044 3304
3045 3345
3045 5670
3046 3304
3048 4376
3049 6142
3051 3562
3051 6348
3052 3329
3052 3374
3052 5230
3052 5460
3052 5509
3054 3138
3057 3255
3058 3303
3058 5379
3059 5083
3059 5569
3060 3303
3061 3163
3061 4976
3061 5410
3063 3562
3063 4289
3064 3258
3067 4970
3067 6462
3069 6135
3070 3321
3070 3399
3070 3562
3070 5422
3070 6454
3072 3357
3073 3237
3073 6454
3075 3329
3076 4006
3076 6454
3077 3334
3078 3216
3079 5096
3079 5431
3082 3562
3083 6421
3085 4695
3087 3562
3087 3782
3090 4884
3091 3293
3094 3192
3094 3270
3094 6421
3096 5942
3099 4437
3101 3216
3102 5550
3103 5410
3104 4149
3106 5512
3106 6454
3107 3308
3107 6454
3108 5460
3109 3562
3112 5562
3113 6442
3116 3504
3116 5520
3117 3353
3117 3362
3117 3407
3117 3533
3117 4431
3117 4464
3117 4573
3117 5028
3117 5379
3117 5401
3117 5410
3118 3217
3121 3562
3123 3603
3124 3329
3125 3303
3129 3153
3130 5414
3130 5460
3130 5467
3130 5495
3132 3268
3133 4230
3133 5509
3134 6300
3136 3374
3136 5410
3138 3178
3138 3199
3138 3201
3138 3280
3138 3300
3138 3334
3138 3505
3138 3529
3138 3580
3138 4405
3138 4440
3138 4459
3138 4500
3138 4508
3138 4566
3138 4604
3138 4691
3138 4807
3138 4812
3138 4995
3138 5006
3138 5035
3138 5400
3138 5402
3138 5420
3138 5425
3138 5460
3138 5463
3138 5572
3139 3520
3140 4799
3143 5378
3144 3345
3145 3492
3146 3300
3148 3562
3149 3421
3149 6454
3150 3472
3154 4407
3156 3258
3157 3301
3157 5409
3159 3266
3160 3385
3161 3233
3162 3225
3162 3301
3162 3331
3162 4403
3162 4532
3162 4616
3162 5386
3162 5428
3162 5460
3162 5550
3163 3258
3163 4620
3163 4976
3164 5596
3166 3329
3166 5520
3167 3329
3167 5598
3168 3467
3170 4644
3172 3216
3174 5431
3177 5607
3178 3334
3178 5414
3179 3323
3179 4728
3179 4914
3181 3374
3182 3340
3183 3185
3183 5385
3184 3185
3184 5385
3185 3522
3185 4086
3185 4742
3185 6413
3186 3562
3186 6348
3188 3260
3188 3306
3189 5618
3190 3562
3191 5560
3192 3303
3192 3409
3192 4485
3192 5379
3192 5395
3192 5397
3192 5401
3193 3383
3193 3394
3193 4542
3195 5596
3196 5697
3204 3270
3207 3260
3209 6421
3210 3212
3210 4559
3213 3258
3213 3305
3216 3437
3216 3605
3216 4001
3216 4400
3216 4478
3216 4513
3216 4538
3216 4815
3216 4896
3216 4897
3216 4954
3216 5097
3216 5292
3216 5411
3216 5441
3216 5512
3217 3313
3217 3446
3217 4517
3217 4830
3217 5460
3217 5552
3217 5559
3217 6454
3218 3293
3219 5569
3221 3239
3221 5379
3223 3225
3223 3436
3224 5409
3225 4901
3230 5697
3231 5447
3232 4492
3233 4184
3234 6421
3235 3260
3235 5595
3237 3434
3240 3254
3240 3562
3242 3562
3243 3316
3244 4834
3244 4899
3245 5581
3246 5422
3246 6421
3247 5414
3248 3562
3248 4324
3250 5547
3250 6454
3253 3255
3255 3320
3255 4560
3255 4837
3255 5116
3255 5593
3255 5594
3257 3374
3258 3265
3258 3334
3258 3401
3258 3444
3258 3538
3258 3562
3258 4371
3258 4405
3258 4557
3258 4562
3258 4599
3258 4604
3258 4633
3258 4639
3258 4773
3258 4877
3258 4908
3258 4992
3258 5300
3258 5386
3258 5393
3258 5460
3258 5598
3259 4841
3259 5378
3260 3318
3260 3548
3260 3605
3260 3918
3260 4478
3260 4513
3260 4518
3260 4534
3260 4538
3260 4815
3260 4820
3260 4862
3260 4897
3260 4935
3260 4954
3260 4957
3260 4989
3260 5118
3260 5171
3260 5292
3260 5437
3260 5440
3260 5441
3260 5986
3260 6216
3262 3610
3262 5020
3262 5048
3262 5192
3262 5378
3263 3353
3263 4616
3263 5379
3263 5410
3264 6328
3266 3334
3267 3301
3268 3344
3268 3352
3268 3524
3268 4550
3268 5481
3268 5496
3268 5559
3268 5568
3268 5573
3269 5409
3270 3493
3270 4485
3270 4667
3270 4871
3272 5409
3273 3293
3274 3353
3275 5516
3276 5090
3280 3334
3282 5378
3283 5378
3284 3638
3284 5287
3286 5379
3287 5414
3287 5460
3288 4383
3289 3472
3292 5484
3293 3334
3293 3535
3293 3562
3293 4623
3293 4672
3293 4838
3293 4939
3293 5307
3293 5414
3293 5460
3293 5557
3293 5625
3295 3304
3296 5379
3296 5393
3297 4893
3297 5379
3297 5414
3298 4231
3299 3952
3299 5684
3301 3305
3301 3306
3301 3330
3301 3331
3301 3334
3301 3353
3301 3417
3301 4390
3301 4439
3301 4523
3301 4609
3301 4616
3301 4898
3301 4999
3301 5090
3301 5379
3301 5404
3301 5418
3301 5428
3301 5467
3301 5540
3301 5578
3301 5596
3301 5621
3301 5624
3303 4416
3303 4595
3303 4631
3303 4647
3303 4752
3303 4785
3303 4971
3303 5060
3303 5318
3303 5396
3303 5397
3303 5494
3303 5511
3303 5603
3304 3338
3304 3342
3304 3412
3304 3435
3304 3447
3304 3545
3304 4404
3304 4430
3304 4480
3304 4503
3304 4772
3304 4920
3304 4969
3304 5124
3304 5172
3304 5178
3304 5379
3304 5386
3304 5623
3305 3307
3305 4508
3305 5464
3307 5590
3308 5620
3310 6424
3312 3316
3312 4843
3314 4698
3314 4722
3314 4973
3314 5069
3314 5308
3317 5569
3318 5595
3321 3334
3321 3376
3321 3383
3321 3466
3321 3477
3321 3543
3321 3580
3321 3746
3321 4001
3321 4382
3321 4639
3321 4770
3321 4845
3321 4851
3321 4981
3321 4993
3321 5350
3321 5460
3321 5484
3324 5409
3325 5410
3326 5569
3327 5416
3328 5547
3329 3571
3329 4490
3329 4810
3329 5379
3329 5460
3329 5598
3330 3481
3334 3374
3334 3502
3334 3574
3334 4511
3334 4514
3334 5379
3334 5391
3334 5400
3334 5401
3334 5414
3334 5418
3334 5419
3334 5463
3334 5497
3334 5512
3334 5584
3334 5591
3334 5616
3336 5569
3337 5379
3339 5379
3339 5460
3340 3468
3340 5102
3340 5267
3341 4006
3341 5484
3343 5379
3345 3420
3345 4810
3345 5379
3345 5460
3345 5601
3345 6321
3348 3666
3349 6133
3350 3562
3350 4514
3353 3362
3353 3407
3353 3533
3353 3573
3353 4418
3353 4502
3353 4668
3353 4702
3353 4832
3353 5410
3356 6454
3357 3374
3357 3378
3357 3523
3357 3562
3357 3617
3357 3704
3357 3721
3357 3787
3357 3952
3357 4007
3357 4077
3357 4125
3357 4129
3357 4136
3357 4163
3357 4201
3357 4312
3357 4535
3357 4854
3357 4970
3357 5001
3357 5042
3357 5198
3357 5333
3357 5355
3357 5374
3357 5407
3357 5462
3357 5595
3357 5646
3357 5651
3357 5672
3357 5697
3357 5706
3357 5741
3357 5780
3357 5792
3357 5855
3357 5921
3357 5991
3357 6042
3357 6065
3357 6080
3357 6318
3357 6348
3357 6362
3357 6403
3357 6428
3357 6468
3361 5642
3364 3663
3366 5647
3366 5697
3369 3492
3369 3562
3370 3379
3374 3487
3374 4386
3374 4403
3374 4409
3374 4933
3374 4954
3374 5043
3374 5119
3374 5401
3374 5410
3374 5460
3374 5560
3377 5415
3378 6133
3378 6136
3378 6142
3380 3562
3384 5009
3384 5321
3384 6421
3385 3500
3385 3710
3385 4149
3385 4154
3385 4311
3385 4985
3385 5703
3385 6017
3385 6029
3385 6071
3385 6108
3385 6132
3385 6211
3385 6270
3385 6392
3386 5697
3387 3492
3389 3913
3390 5569
3393 3562
3394 5431
3395 6083
3397 3728
3398 5409
3399 6421
3401 4413
3401 4907
3402 5431
3403 3968
3403 5520
3403 6462
3405 3442
3405 3562
3405 4242
3405 5194
3405 6285
3406 3562
3408 3562
3408 3858
3408 4324
3410 3780
3412 4534
3412 5088
3413 6454
3419 3550
3420 4933
3421 3584
3423 6199
3426 4874
3430 4730
3433 3562
3433 6300
3438 5410
3438 5431
3441 3472
3441 6421
3442 3562
3443 5379
3444 5379
3444 5463
3445 4616
3445 5379
3448 3507
3448 5837
3450 4271
3451 5415
3453 5415
3454 5460
3458 3599
3459 3562
3460 3562
3460 6260
3462 3603
3462 5279
3463 3712
3463 3764
3463 3911
3463 3912
3463 3961
3463 4236
3463 4243
3463 4335
3463 4345
3463 4395
3463 4748
3463 4782
3463 4783
3463 4784
3463 6462
3464 3550
3464 5697
3464 6374
3465 6389
3467 3536
3467 4533
3467 5130
3467 5343
3467 6454
3471 4417
3471 5493
3472 5061
3472 5101
3472 5220
3472 5595
3472 6454
3473 3562
3478 3486
3478 4409
3478 4469
3478 4486
3478 4562
3478 4618
3478 4735
3478 4836
3478 4864
3478 4880
3478 4930
3478 5518
3479 4884
3479 5509
3480 5415
3484 3915
3491 6348
3492 3562
3492 3933
3492 4199
3492 4638
3492 5152
3492 5642
3492 6080
3492 6262
3492 6320
3492 6454
3494 4882
3494 5148
3494 5243
3494 6408
3498 6260
3500 6428
3501 5379
3502 6173
3503 3562
3508 3562
3509 3562
3509 4541
3510 5651
3513 3550
3514 5651
3515 5465
3516 5419
3518 5378
3519 6468
3520 3559
3520 5378
3522 6454
3525 5493
3527 6421
3537 5552
3541 5466
3544 6421
3545 4950
3546 5677
3547 5608
3550 3562
3550 3635
3550 3639
3550 3644
3550 3650
3550 3659
3550 3674
3550 3760
3550 3792
3550 3806
3550 3812
3550 3838
3550 3894
3550 3901
3550 3932
3550 3953
3550 4038
3550 4040
3550 4146
3550 4167
3550 4169
3550 4181
3550 4242
3550 4270
3550 4320
3550 4422
3550 4493
3550 4600
3550 4660
3550 4825
3550 4888
3550 4958
3550 5034
3550 5098
3550 5120
3550 5127
3550 5129
3550 5150
3550 5152
3550 5214
3550 5272
3550 5281
3550 5327
3550 5333
3550 5407
3550 5431
3550 5462
3550 5505
3550 5585
3550 5651
3550 5652
3550 5728
3550 5739
3550 5826
3550 5836
3550 5900
3550 5908
3550 5927
3550 6041
3550 6067
3550 6116
3550 6124
3550 6155
3550 6221
3550 6222
3550 6246
3550 6260
3550 6317
3550 6352
3550 6354
3550 6421
3550 6454
3555 6204
3555 6468
3558 6454
3558 6462
3562 3564
3562 3565
3562 3585
3562 3600
3562 3615
3562 3625
3562 3626
3562 3637
3562 3649
3562 3656
3562 3663
3562 3694
3562 3700
3562 3701
3562 3702
3562 3704
3562 3729
3562 3741
3562 3771
3562 3782
3562 3783
3562 3791
3562 3796
3562 3798
3562 3802
3562 3815
3562 3829
3562 3832
3562 3834
3562 3847
3562 3876
3562 3878
3562 3915
3562 3916
3562 3932
3562 3933
3562 3952
3562 3960
3562 3968
3562 3985
3562 3995
3562 3999
3562 4007
3562 4044
3562 4058
3562 4064
3562 4066
3562 4067
3562 4068
3562 4070
3562 4071
3562 4074
3562 4086
3562 4092
3562 4095
3562 4106
3562 4112
3562 4119
3562 4130
3562 4135
3562 4137
3562 4153
3562 4169
3562 4182
3562 4201
3562 4203
3562 4209
3562 4220
3562 4231
3562 4238
3562 4244
3562 4245
3562 4246
3562 4252
3562 4262
3562 4272
3562 4280
3562 4282
3562 4292
3562 4294
3562 4296
3562 4329
3562 4334
3562 4337
3562 4347
3562 4354
3562 4361
3562 4364
3562 4370
3562 4374
3562 4389
3562 4394
3562 4412
3562 4437
3562 4460
3562 4495
3562 4509
3562 4514
3562 4541
3562 4545
3562 4551
3562 4566
3562 4575
3562 4621
3562 4638
3562 4652
3562 4670
3562 4671
3562 4695
3562 4699
3562 4723
3562 4734
3562 4751
3562 4756
3562 4762
3562 4766
3562 4788
3562 4789
3562 4800
3562 4814
3562 4868
3562 4883
3562 4903
3562 4909
3562 4927
3562 4948
3562 4955
3562 4991
3562 5001
3562 5007
3562 5025
3562 5050
3562 5055
3562 5057
3562 5068
3562 5079
3562 5094
3562 5108
3562 5129
3562 5135
3562 5136
3562 5140
3562 5149
3562 5156
3562 5159
3562 5170
3562 5174
3562 5184
3562 5189
3562 5193
3562 5198
3562 5200
3562 5203
3562 5206
3562 5208
3562 5215
3562 5217
3562 5223
3562 5226
3562 5229
3562 5247
3562 5250
3562 5266
3562 5283
3562 5286
3562 5287
3562 5288
3562 5297
3562 5309
3562 5326
3562 5344
3562 5355
3562 5358
3562 5365
3562 5374
3562 5384
3562 5390
3562 5392
3562 5401
3562 5417
3562 5426
3562 5430
3562 5465
3562 5467
3562 5474
3562 5476
3562 5477
3562 5484
3562 5486
3562 5487
3562 5537
3562 5545
3562 5557
3562 5567
3562 5583
3562 5587
3562 5613
3562 5618
3562 5628
3562 5652
3562 5653
3562 5669
3562 5673
3562 5684
3562 5695
3562 5697
3562 5699
3562 5710
3562 5714
3562 5725
3562 5737
3562 5743
3562 5744
3562 5761
3562 5769
3562 5780
3562 5781
3562 5783
3562 5790
3562 5791
3562 5794
3562 5796
3562 5813
3562 5821
3562 5824
3562 5832
3562 5838
3562 5842
3562 5854
3562 5860
3562 5862
3562 5865
3562 5871
3562 5874
3562 5879
3562 5885
3562 5886
3562 5894
3562 5895
3562 5897
3562 5915
3562 5924
3562 5926
3562 5936
3562 5950
3562 5966
3562 5971
3562 5981
3562 5984
3562 5993
3562 5998
3562 5999
3562 6000
3562 6016
3562 6021
3562 6023
3562 6031
3562 6038
3562 6039
3562 6058
3562 6062
3562 6073
3562 6077
3562 6080
3562 6082
3562 6087
3562 6096
3562 6106
3562 6114
3562 6119
3562 6128
3562 6131
3562 6133
3562 6135
3562 6136
3562 6142
3562 6148
3562 6160
3562 6164
3562 6166
3562 6169
3562 6173
3562 6187
3562 6196
3562 6197
3562 6205
3562 6218
3562 6222
3562 6226
3562 6238
3562 6244
3562 6251
3562 6259
3562 6260
3562 6263
3562 6266
3562 6268
3562 6269
3562 6272
3562 6277
3562 6282
3562 6291
3562 6294
3562 6296
3562 6297
3562 6299
3562 6305
3562 6306
3562 6307
3562 6308
3562 6310
3562 6312
3562 6313
3562 6331
3562 6338
3562 6348
3562 6360
3562 6364
3562 6377
3562 6380
3562 6399
3562 6415
3562 6418
3562 6440
3562 6441
3562 6453
3562 6456
3562 6457
3562 6458
3562 6461
3562 6462
3562 6467
3562 6468
3562 6470
3565 3738
3566 5007
3571 6462
3573 5379
3574 4943
3574 4970
3574 5054
3574 5460
3578 5670
3579 5652
3581 5552
3582 5647
3583 3702
3583 4601
3588 5378
3589 5651
3592 5415
3593 5378
3596 4270
3597 3633
3598 5746
3603 3628
3603 3813
3603 4041
3603 4091
3603 4144
3603 4510
3603 4940
3603 5072
3603 5689
3603 5691
3603 5756
3603 5770
3603 6328
3603 6402
3603 6464
3604 3817
3609 3772
3609 3965
3609 3977
3609 4017
3609 4767
3611 5379
3612 4405
3614 3759
3618 4375
3618 5678
3618 6173
3620 6348
3627 6142
3628 6454
3639 5697
3641 6333
3643 4970
3644 6260
3647 4324
3648 4201
3649 3968
3649 6462
3650 3844
3650 6348
3651 5651
3653 6260
3658 6454
3662 3663
3663 4159
3663 4529
3663 4606
3663 4617
3663 4638
3664 3858
3665 6260
3667 5861
3669 6173
3670 5647
3675 3848
3677 3678
3677 6123
3682 6199
3685 4855
3687 6406
3691 4638
3691 4681
3692 3826
3692 4010
3692 4767
3695 3787
3695 4767
3697 4767
3698 5052
3699 3787
3700 3743
3701 6133
3702 4202
3702 4223
3702 6057
3702 6367
3715 4085
3715 6153
3716 6260
3716 6456
3719 4566
3721 6462
3722 4789
3724 4629
3724 4658
3725 4059
3727 4514
3727 6083
3731 4434
3733 4787
3735 6462
3738 4232
3738 6348
3740 4303
3740 5325
3740 5977
3742 4006
3742 5368
3742 5974
3742 6181
3743 5688
3748 4764
3749 3787
3749 4767
3751 4001
3751 6454
3753 4376
3755 5678
3755 5697
3759 4030
3761 4029
3762 5679
3767 6464
3769 5623
3770 4652
3771 5334
3772 3777
3772 4186
3774 3971
3774 4102
3774 4172
3774 4189
3774 6462
3775 4514
3776 4767
3779 4767
3781 4088
3781 4649
3782 5651
3785 4767
3787 3814
3787 3967
3787 4009
3787 4013
3787 4016
3787 4048
3787 4049
3787 4051
3787 4052
3787 4053
3787 4054
3787 4055
3787 4056
3787 4057
3787 4061
3787 4098
3787 4102
3787 4103
3787 4104
3787 4108
3787 4172
3787 4177
3787 4185
3787 4187
3787 4193
3787 4197
3787 4200
3787 4247
3787 4250
3787 4253
3787 4254
3787 4255
3787 4256
3787 4257
3787 4261
3787 4263
3787 4265
3787 4268
3787 4274
3787 4281
3787 4283
3787 4284
3787 4285
3787 4286
3787 4291
3787 4352
3787 4358
3787 4366
3787 4369
3787 4372
3787 4378
3787 4380
3787 4661
3787 4664
3787 4671
3787 4746
3787 4792
3787 4793
3787 5052
3787 6069
3787 6454
3787 6462
3789 6348
3790 5236
3790 5647
3791 4004
3791 6372
3791 6454
3792 5697
3795 4558
3796 5509
3797 6348
3798 4683
3801 6429
3803 4769
3804 5487
3804 6080
3804 6250
3804 6400
3805 5684
3810 4649
3811 6333
3813 6311
3814 4767
3817 4006
3817 6446
3818 3957
3818 5004
3818 5150
3818 5211
3819 4649
3822 4781
3825 6198
3826 4767
3828 3853
3828 4704
3830 4717
3831 4201
3832 5004
3832 5525
3832 6220
3835 4704
3840 4622
3841 4434
3841 4741
3843 4695
3845 3968
3846 5647
3848 4277
3848 4556
3848 6260
3850 4726
3855 4695
3857 3915
3857 5410
3857 5638
3858 4161
3858 4324
3858 6122
3859 4704
3861 4733
3862 4695
3869 4733
3872 5199
3873 4704
3876 6173
3879 4776
3882 4231
3882 6125
3883 4231
3884 3968
3884 6348
3887 4231
3888 4800
3890 4280
3893 5509
3894 4566
3896 6333
3898 5415
3904 4059
3905 4216
3905 4776
3906 6333
3907 4622
3910 4184
3912 4029
3915 4090
3915 5505
3915 5842
3915 6061
3915 6359
3916 4744
3917 5304
3920 4638
3923 3952
3925 4216
3926 6462
3931 4022
3931 6454
3932 5403
3932 5739
3935 4769
3936 5323
3937 4769
3938 4769
3940 4695
3941 4769
3944 6133
3945 4059
3945 4638
3948 4744
3949 4649
3950 4638
3952 4554
3952 5361
3952 5887
3952 6086
3952 6103
3952 6286
3952 6351
3952 6352
3954 4787
3959 6462
3962 4434
3963 4767
3967 4767
3968 4199
3968 4220
3968 4258
3968 4260
3968 4423
3968 4597
3968 4767
3968 4997
3968 5089
3968 5214
3968 5334
3968 5671
3968 5795
3968 5869
3968 5954
3968 5985
3968 5991
3968 6029
3968 6212
3968 6355
3968 6394
3968 6417
3968 6469
3968 6474
3970 3977
3971 4767
3974 4787
3977 4009
3977 4060
3977 4111
3977 4175
3977 4276
3977 4352
3977 4670
3977 4791
3977 4962
3978 6139
3981 4870
3981 5796
3982 4632
3983 4649
3984 4769
3985 5512
3985 6454
3986 4744
3988 4638
3988 6454
3992 4001
3993 5651
3997 6199
3997 6381
3999 6348
4000 5051
4001 4004
4001 4690
4001 4806
4001 5001
4001 5379
4001 5414
4001 5460
4001 5466
4001 5510
4001 5512
4001 5584
4001 6188
4006 4231
4006 5562
4006 5633
4006 5640
4006 6401
4006 6459
4007 5282
4007 5488
4007 5927
4007 5991
4007 6284
4008 4275
4011 5651
4012 4767
4014 4671
4015 4767
4016 4767
4017 4767
4019 4769
4020 4787
4022 4756
4022 5401
4023 5728
4026 4059
4027 4649
4028 4059
4028 4638
4029 4663
4029 4779
4029 6454
4035 4769
4038 4514
4040 5193
4041 6464
4042 4787
4045 4231
4046 5007
4049 4767
4050 5415
4051 4671
4052 4767
4053 4767
4056 4767
4059 4114
4059 4213
4059 4218
4059 4225
4059 4625
4059 4632
4059 4640
4059 4651
4059 4659
4059 4749
4059 4765
4059 4774
4059 4850
4059 6462
4061 4767
4063 6454
4066 6133
4070 5891
4070 6335
4070 6418
4072 4787
4083 4784
4087 5509
4090 6348
4095 4324
4096 4341
4097 4767
4099 4514
4111 4638
4113 4756
4114 4638
4117 6348
4120 4638
4120 4646
4121 6348
4122 6348
4129 5697
4131 5051
4133 5697
4135 4775
4135 4809
4135 5728
4136 6133
4143 4632
4146 4514
4147 6348
4151 4201
4156 6173
4160 4375
4162 5677
4165 6173
4168 5651
4170 6348
4174 4767
4180 5677
4183 4767
4184 4356
4184 5622
4184 5687
4184 5839
4193 4767
4194 5323
4195 4671
4195 4767
4198 4695
4201 4209
4201 4262
4201 4324
4201 4325
4201 4960
4201 4994
4201 5186
4201 5715
4201 5727
4201 5752
4201 5772
4201 5778
4201 5807
4201 5848
4201 6079
4201 6273
4201 6297
4201 6372
4201 6393
4201 6421
4201 6435
4201 6468
4202 4601
4204 4912
4207 4348
4208 5132
4210 4638
4211 6454
4212 6227
4215 4856
4216 4638
4216 4760
4216 5684
4216 6164
4223 6378
4226 4638
4227 4566
4227 6348
4229 6129
4230 6454
4231 4376
4231 5115
4231 5238
4231 5251
4231 5305
4231 5310
4231 5322
4231 5348
4231 5438
4231 5773
4231 5833
4231 5852
4231 5870
4231 5901
4231 6056
4231 6076
4231 6125
4231 6126
4231 6185
4231 6214
4231 6454
4233 6462
4235 6348
4237 4781
4239 4566
4240 6348
4241 6260
4242 5264
4249 4767
4251 4767
4260 5004
4271 4388
4271 4927
4275 4652
4275 4763
4275 6454
4278 5647
4279 6244
4283 4671
4286 4767
4289 5971
4290 4767
4297 4927
4298 6173
4300 4742
4300 4777
4301 4304
4304 6462
4305 4658
4308 4437
4309 4787
4316 5199
4317 6373
4319 4764
4319 4769
4320 4341
4320 5647
4320 6454
4322 4638
4323 5509
4324 4367
4324 5122
4324 5764
4324 5860
4324 5996
4324 6231
4326 4764
4326 4769
4330 4331
4331 5509
4332 4764
4334 6198
4335 4343
4338 4632
4338 4638
4340 4652
4343 4781
4346 4769
4349 4558
4353 6462
4356 4566
4356 6133
4359 5145
4359 5647
4359 5697
4359 6082
4360 4767
4362 5007
4363 4878
4363 5651
4363 5697
4368 5651
4373 6348
4376 6454
4379 4566
4381 6348
4385 5416
4385 5557
4387 6348
4389 4401
4389 6454
4393 5584
4396 4890
4396 5390
4398 5552
4398 6454
4403 5379
4407 5607
4410 4426
4412 6135
4418 4616
4419 5379
4419 5512
4420 4916
4420 5090
4421 4448
4423 6135
4427 5557
4434 4741
4435 4762
4437 5539
4437 5847
4440 5401
4441 5383
4444 5428
4448 5618
4455 6383
4455 6384
4455 6388
4456 5674
4458 5007
4459 5575
4461 5552
4463 5410
4464 4616
4468 5169
4468 5379
4471 6402
4472 6348
4474 5595
4476 5409
4479 5651
4482 5552
4484 5595
4486 4735
4488 6454
4489 5596
4494 6333
4497 6080
4500 6454
4502 5379
4506 5389
4506 5520
4509 5007
4510 6328
4511 4827
4511 5489
4512 6199
4514 4863
4514 5344
4514 5401
4514 5460
4514 5825
4521 5487
4524 5409
4526 5540
4528 6348
4536 5596
4539 6454
4540 6348
4541 5327
4541 5693
4541 5719
4541 5751
4541 5789
4541 5848
4541 6189
4541 6236
4545 6183
4546 5584
4551 5008
4551 5926
4551 6122
4551 6375
4552 5595
4560 5552
4564 4616
4566 4576
4566 4787
4566 4952
4566 5335
4566 5354
4566 5355
4566 5727
4566 5867
4566 5947
4566 6150
4566 6174
4566 6292
4566 6318
4566 6353
4566 6454
4568 5509
4568 6333
4577 4813
4580 5512
4585 5550
4586 5607
4589 5487
4590 5460
4590 5608
4599 5431
4601 6057
4601 6367
4602 5569
4603 5379
4608 6173
4610 4638
4610 6454
4611 4638
4612 4638
4613 5401
4613 6454
4615 4638
4616 5379
4616 5410
4619 6454
4620 5085
4622 4763
4622 6454
4624 4638
4628 4638
4629 4658
4629 4775
4629 6454
4632 4638
4632 4646
4632 4648
4632 4802
4632 4811
4632 5728
4634 6403
4636 5511
4638 4642
4638 4645
4638 4646
4638 4656
4638 4657
4638 4749
4638 4761
4638 4775
4638 4800
4638 5086
4646 6462
4649 4771
4652 4766
4652 4775
4652 4777
4652 5728
4653 5618
4654 5677
4654 6348
4655 6462
4658 6462
4660 6260
4661 4767
4662 5512
4664 4767
4668 5379
4672 5493
4678 4695
4679 4695
4683 4690
4683 4701
4683 4723
4683 4736
4684 4717
4687 4695
4689 4695
4691 5595
4692 4695
4692 4775
4693 4726
4694 4695
4695 4705
4695 4712
4695 4714
4695 4721
4695 4733
4696 4704
4697 4704
4703 4715
4704 4721
4704 4736
4706 5512
4710 4717
4712 4717
4714 6342
4716 5379
4717 4720
4718 4768
4718 4797
4723 4726
4724 4726
4725 4733
4737 4806
4738 5431
4741 4764
4741 4808
4742 4763
4742 6454
4744 6462
4745 4806
4748 4781
4750 4767
4753 4806
4756 4759
4756 6454
4762 4796
4762 4801
4762 6454
4764 4769
4766 4768
4767 4791
4767 5052
4767 6454
4767 6462
4775 4796
4776 6068
4776 6462
4777 6454
4779 6462
4780 5463
4780 5608
4781 6462
4787 6462
4789 5728
4794 5728
4800 5728
4804 6454
4813 4833
4816 6454
4817 4874
4817 5519
4818 4874
4822 5552
4825 5677
4826 5670
4833 5684
4835 6366
4839 5406
4841 5378
4847 5431
4849 5680
4852 5651
4852 6348
4855 6462
4867 5428
4869 5849
4872 5572
4873 5424
4876 5618
4879 6348
4881 6348
4889 5209
4909 5414
4910 5030
4912 6229
4915 5415
4918 5618
4921 5608
4924 5717
4927 5164
4927 5207
4927 5346
4927 5375
4927 5649
4927 5736
4927 5802
4927 5834
4927 5925
4927 5956
4927 5970
4927 6015
4927 6058
4927 6148
4927 6274
4927 6324
4927 6337
4927 6465
4933 5670
4938 6454
4942 5837
4944 6348
4945 5404
4945 6462
4958 6068
4959 6114
4963 6348
4965 5431
4968 6015
4970 5001
4970 5175
4970 5642
4970 6017
4970 6079
4970 6261
4970 6354
4970 6435
4970 6462
4975 6392
4979 4981
4982 5557
4983 5688
4985 6029
4986 5487
4990 6468
4996 5509
4998 5651
5001 6132
5001 6344
5001 6462
5004 5700
5007 5268
5007 5270
5007 5277
5007 5878
5007 5934
5007 6064
5007 6070
5007 6190
5007 6241
5010 6468
5019 6155
5021 6462
5027 5509
5030 5112
5038 6136
5040 5509
5043 5379
5044 5697
5044 6129
5045 5379
5045 5520
5049 5651
5050 6133
5057 5894
5063 6454
5067 5823
5070 5401
5072 6454
5073 6403
5077 6348
5082 6462
5087 6348
5090 5379
5090 5460
5090 5501
5095 5410
5098 5677
5098 6347
5102 5487
5103 5107
5104 5107
5105 5107
5106 5107
5113 6173
5117 6348
5127 6173
5132 6462
5133 5790
5139 5684
5139 6182
5143 6222
5143 6454
5147 5651
5147 5697
5150 5697
5150 6348
5151 6402
5154 6348
5156 5509
5157 5386
5160 6199
5161 6348
5170 5697
5173 6133
5174 5186
5179 5684
5180 6173
5186 5363
5187 5604
5194 5697
5195 5679
5196 6454
5197 6078
5199 5582
5199 6003
5202 5598
5204 6454
5210 5487
5212 5651
5212 5697
5217 6225
5219 6348
5221 6036
5221 6173
5221 6348
5227 6392
5228 6312
5234 5651
5234 5697
5240 6142
5243 6454
5248 5697
5253 5415
5255 5651
5256 5334
5258 6462
5260 5540
5262 5738
5271 6136
5276 6135
5277 5697
5282 6348
5285 5618
5287 6454
5298 5651
5303 6173
5305 6076
5306 5714
5310 5509
5313 6066
5314 6173
5315 6348
5330 6333
5331 5415
5332 5674
5332 6173
5333 5407
5338 5651
5339 6468
5344 5362
5351 6133
5356 5497
5363 6348
5368 5714
5369 6468
5370 5509
5370 6141
5373 6333
5374 6136
5376 6328
5377 5772
5378 5414
5378 5480
5378 5557
5378 6454
5379 5393
5379 5401
5379 5410
5379 5414
5379 5428
5379 5433
5379 5460
5379 5463
5379 5500
5379 5509
5379 5513
5379 5550
5379 5552
5379 5557
5379 5558
5379 5560
5379 5572
5379 5588
5379 5595
5379 5603
5379 5612
5379 5622
5379 5670
5379 6068
5379 6462
5382 5414
5383 5494
5386 5404
5389 5429
5389 5460
5389 5565
5391 5414
5391 5460
5391 5512
5394 5562
5397 6421
5401 5460
5401 5485
5402 5410
5404 5513
5409 5471
5409 5490
5410 5414
5410 5431
5410 5460
5410 5497
5410 5578
5410 5595
5410 5622
5410 6428
5412 6133
5412 6454
5414 5460
5414 5497
5414 5504
5414 5520
5414 5552
5414 5572
5414 5595
5415 5793
5417 6454
5419 5420
5421 5557
5427 6348
5431 5460
5431 6454
5432 6263
5433 5460
5434 5569
5439 5651
5448 5677
5448 6136
5452 5714
5453 6420
5457 6348
5460 5463
5460 5497
5460 5509
5460 5512
5460 5520
5460 5552
5460 5553
5460 5558
5460 5572
5460 5595
5460 5605
5460 5608
5460 5612
5460 5622
5460 5670
5460 6068
5460 6462
5463 5553
5469 5569
5470 5516
5472 5569
5481 5569
5483 5520
5484 5514
5484 5562
5484 5566
5484 5597
5484 6454
5492 6173
5493 5625
5501 5565
5508 6348
5509 5686
5509 5705
5509 5711
5509 5863
5509 6128
5509 6462
5515 6125
5516 6454
5520 5558
5523 6454
5526 5674
5531 6348
5531 6462
5532 5677
5542 6454
5543 6228
5544 6129
5552 5684
5552 5714
5561 5595
5569 6454
5585 6348
5586 6348
5592 6333
5595 6462
5596 6421
5596 6462
5611 6454
5617 5618
5618 6454
5619 5651
5627 6307
5633 6454
5634 6133
5637 5697
5637 6348
5638 6067
5640 5684
5640 6454
5645 6348
5647 5701
5647 5730
5647 5748
5647 5774
5647 5858
5647 5898
5647 5937
5647 6137
5647 6201
5647 6215
5647 6288
5647 6317
5647 6326
5647 6350
5647 6362
5647 6366
5647 6369
5647 6375
5647 6393
5647 6403
5647 6423
5647 6447
5649 6015
5651 5693
5651 5699
5651 5716
5651 5747
5651 5876
5651 5960
5651 6115
5651 6138
5651 6149
5651 6189
5651 6297
5651 6353
5651 6411
5657 6326
5657 6348
5661 5674
5665 6063
5667 5684
5667 5718
5668 6133
5670 6462
5671 6462
5672 5674
5674 5775
5674 5777
5674 6202
5674 6240
5674 6345
5674 6395
5674 6412
5674 6470
5675 5960
5677 5947
5677 6055
5677 6345
5684 5823
5684 6080
5684 6234
5686 6175
5688 6462
5690 6403
5694 5829
5694 5914
5694 5935
5697 5774
5697 5817
5697 5991
5697 5998
5697 6004
5697 6063
5697 6089
5697 6114
5697 6139
5697 6192
5697 6278
5697 6285
5697 6323
5697 6334
5697 6435
5697 6458
5697 6462
5698 6348
5709 6348
5711 5714
5713 6080
5714 6084
5714 6090
5718 5992
5722 6404
5738 6034
5738 6064
5751 5755
5755 6361
5757 6348
5764 6396
5766 6053
5770 6454
5771 6260
5772 6309
5772 6348
5772 6462
5778 6348
5779 6024
5779 6174
5779 6422
5786 6454
5786 6462
5803 6366
5816 6348
5825 6348
5846 6260
5851 6454
5851 6464
5853 6348
5855 6173
5860 6403
5866 6468
5869 6428
5877 6348
5878 6011
5884 6173
5888 6348
5896 6348
5907 6133
5914 6173
5917 6348
5920 6199
5935 6173
5941 6002
5947 6136
5964 6348
5965 6466
5966 6348
5968 6282
5969 6135
5972 6260
5980 6348
5990 5998
5991 6348
5991 6462
5993 6133
5995 6348
6004 6173
6005 6083
6018 6430
6018 6472
6022 6133
6022 6142
6032 6204
6032 6300
6050 6348
6051 6348
6077 6260
6083 6118
6091 6348
6109 6348
6110 6348
6114 6336
6114 6468
6117 6136
6120 6136
6124 6454
6125 6421
6128 6454
6135 6194
6135 6280
6135 6395
6135 6470
6139 6146
6141 6199
6141 6307
6145 6348
6148 6454
6153 6387
6161 6348
6164 6462
6166 6348
6173 6245
6173 6328
6173 6412
6179 6429
6191 6260
6199 6234
6202 6454
6209 6348
6219 6348
6224 6445
6229 6468
6253 6348
6254 6348
6258 6462
6260 6409
6263 6348
6273 6348
6277 6348
6281 6462
6303 6348
6321 6462
6322 6468
6323 6445
6328 6454
6333 6343
6336 6396
6338 6348
6340 6348
6346 6348
6347 6348
6348 6379
6348 6412
6348 6429
6348 6462
6348 6464
6348 6474
6351 6416
6357 6382
6372 6472
6396 6454
6401 6454
6402 6454
6402 6464
6414 6462
6421 6462
6428 6462
6430 6454
6430 6472
6441 6462
6442 6456
6454 6464
